num_bands       = 240
num_wann        =  88
num_iter        = 0
num_print_cycles = 0

begin projections
Mn1:s;d
Mn2:s;d
Mn3:s;d
Mn4:s;d
Mn5:s;d
Mn6:s;d
Sn1:s;p
Sn2:s;p
end projections

begin atoms_frac
 Mn1  0.8388    0.6776    0.2500
 Mn2  0.3224    0.1612    0.2500
 Mn3  0.8388    0.1612    0.2500
 Mn4  0.1612    0.3224    0.7500
 Mn5  0.6776    0.8388    0.7500
 Mn6  0.1612    0.8388    0.7500
 Sn1  0.333333  0.666667  0.2500
 Sn2  0.666667  0.333333  0.7500
end atoms_frac

begin kpoint_path
G   0.00000  0.00000  0.0000  M   0.50000  0.00000  0.0000
M   0.50000  0.00000  0.0000  K   0.33333  0.33333  0.0000
K   0.33333  0.33333  0.0000  G   0.00000  0.00000  0.0000
G   0.00000  0.00000  0.0000  A   0.00000  0.00000  0.5000
A   0.00000  0.00000  0.5000  L   0.50000  0.00000  0.5000
L   0.50000  0.00000  0.5000  H   0.33333  0.33333  0.5000
H   0.33333  0.33333  0.5000  A   0.00000  0.00000  0.5000
M   0.50000  0.00000  0.0000  L   0.50000  0.00000  0.5000
K   0.33333  0.33333  0.0000  H   0.33333  0.33333  0.5000
end kpoint_path

guiding_centres = T

bands_plot =T
write_hr = T

spinors = .true.
dis_win_min = 4.6
dis_win_max = 32.0
dis_froz_min = 4.6
dis_froz_max = 17.0
dis_num_iter = 100
dis_mix_ratio = 0.5
write_proj = .true.
translate_home_cell = .true.

#!To plot the WF
#wannier_plot = T
#wannier_plot_supercell = 3
! wannier_plot_list = 2
! restart = plot

##
## Fermi surface plot
##
#fermi_energy = 15.4731
#fermi_surface_plot = true
#restart = plot

##
## Optical conductivity
##
berry = true
berry_task = kubo
berry_kmesh = 50 50 50
iprint=2
kubo_freq_max = 4
kubo_freq_min = 0
kubo_freq_step = 0.05
kubo_smr_type = gauss
adpt_smr = false
smr_fixed_en_width = 0.4 ! koretsune-san's calc.

fermi_energy=15.4731

##
## Anomalous conductivity
##
#berry = true
#berry_task = ahc
#berry_kmesh = 50 50 50
#iprint=2

##
## Orbital magnetization
##
#berry = true
#berry_task = morb 
#berry_kmesh = 50 50 50
#iprint=2

##
## Spin Hall conductivity
##
#berry = true
#berry_task = shc
#berry_kmesh = 100 100 100
#iprint=2
#kubo_smr_type = gauss
#adpt_smr = false
#smr_fixed_en_width = 0.4 ! koretsune-san's calc.
#shc_freq_scan = false ! false:dc, true:ac
#shc_alpha = 1 # x:1, y:2, z:3
#shc_beta = 2
#shc_gamma = 3

#berry_curv_unit = ang2 ! for curv/shc
#kpath = true
#kpath_task = bands+shc ! bands/curv/morb/shc
#kpath_num_points=500

##fermi_energy=15.3801  15.1150
##fermi_energy_min=13.9801
##fermi_energy_max=15.4801

#fermi_energy=15.4731
#fermi_energy_min=14.4731
#fermi_energy_max=16.4731
#fermi_energy_step=0.01

begin unit_cell_cart
ang
 5.66500000  0.00000000  0.0000000
-2.83250000  4.90603391  0.0000000
 0.00000000  0.00000000  4.5310000
end unit_cell_cart

mp_grid : 7 7 7

begin kpoints
  0.00000000  0.00000000  0.00000000
  0.00000000  0.00000000  0.14285714
  0.00000000  0.00000000  0.28571429
  0.00000000  0.00000000  0.42857143
  0.00000000  0.00000000  0.57142857
  0.00000000  0.00000000  0.71428571
  0.00000000  0.00000000  0.85714286
  0.00000000  0.14285714  0.00000000
  0.00000000  0.14285714  0.14285714
  0.00000000  0.14285714  0.28571429
  0.00000000  0.14285714  0.42857143
  0.00000000  0.14285714  0.57142857
  0.00000000  0.14285714  0.71428571
  0.00000000  0.14285714  0.85714286
  0.00000000  0.28571429  0.00000000
  0.00000000  0.28571429  0.14285714
  0.00000000  0.28571429  0.28571429
  0.00000000  0.28571429  0.42857143
  0.00000000  0.28571429  0.57142857
  0.00000000  0.28571429  0.71428571
  0.00000000  0.28571429  0.85714286
  0.00000000  0.42857143  0.00000000
  0.00000000  0.42857143  0.14285714
  0.00000000  0.42857143  0.28571429
  0.00000000  0.42857143  0.42857143
  0.00000000  0.42857143  0.57142857
  0.00000000  0.42857143  0.71428571
  0.00000000  0.42857143  0.85714286
  0.00000000  0.57142857  0.00000000
  0.00000000  0.57142857  0.14285714
  0.00000000  0.57142857  0.28571429
  0.00000000  0.57142857  0.42857143
  0.00000000  0.57142857  0.57142857
  0.00000000  0.57142857  0.71428571
  0.00000000  0.57142857  0.85714286
  0.00000000  0.71428571  0.00000000
  0.00000000  0.71428571  0.14285714
  0.00000000  0.71428571  0.28571429
  0.00000000  0.71428571  0.42857143
  0.00000000  0.71428571  0.57142857
  0.00000000  0.71428571  0.71428571
  0.00000000  0.71428571  0.85714286
  0.00000000  0.85714286  0.00000000
  0.00000000  0.85714286  0.14285714
  0.00000000  0.85714286  0.28571429
  0.00000000  0.85714286  0.42857143
  0.00000000  0.85714286  0.57142857
  0.00000000  0.85714286  0.71428571
  0.00000000  0.85714286  0.85714286
  0.14285714  0.00000000  0.00000000
  0.14285714  0.00000000  0.14285714
  0.14285714  0.00000000  0.28571429
  0.14285714  0.00000000  0.42857143
  0.14285714  0.00000000  0.57142857
  0.14285714  0.00000000  0.71428571
  0.14285714  0.00000000  0.85714286
  0.14285714  0.14285714  0.00000000
  0.14285714  0.14285714  0.14285714
  0.14285714  0.14285714  0.28571429
  0.14285714  0.14285714  0.42857143
  0.14285714  0.14285714  0.57142857
  0.14285714  0.14285714  0.71428571
  0.14285714  0.14285714  0.85714286
  0.14285714  0.28571429  0.00000000
  0.14285714  0.28571429  0.14285714
  0.14285714  0.28571429  0.28571429
  0.14285714  0.28571429  0.42857143
  0.14285714  0.28571429  0.57142857
  0.14285714  0.28571429  0.71428571
  0.14285714  0.28571429  0.85714286
  0.14285714  0.42857143  0.00000000
  0.14285714  0.42857143  0.14285714
  0.14285714  0.42857143  0.28571429
  0.14285714  0.42857143  0.42857143
  0.14285714  0.42857143  0.57142857
  0.14285714  0.42857143  0.71428571
  0.14285714  0.42857143  0.85714286
  0.14285714  0.57142857  0.00000000
  0.14285714  0.57142857  0.14285714
  0.14285714  0.57142857  0.28571429
  0.14285714  0.57142857  0.42857143
  0.14285714  0.57142857  0.57142857
  0.14285714  0.57142857  0.71428571
  0.14285714  0.57142857  0.85714286
  0.14285714  0.71428571  0.00000000
  0.14285714  0.71428571  0.14285714
  0.14285714  0.71428571  0.28571429
  0.14285714  0.71428571  0.42857143
  0.14285714  0.71428571  0.57142857
  0.14285714  0.71428571  0.71428571
  0.14285714  0.71428571  0.85714286
  0.14285714  0.85714286  0.00000000
  0.14285714  0.85714286  0.14285714
  0.14285714  0.85714286  0.28571429
  0.14285714  0.85714286  0.42857143
  0.14285714  0.85714286  0.57142857
  0.14285714  0.85714286  0.71428571
  0.14285714  0.85714286  0.85714286
  0.28571429  0.00000000  0.00000000
  0.28571429  0.00000000  0.14285714
  0.28571429  0.00000000  0.28571429
  0.28571429  0.00000000  0.42857143
  0.28571429  0.00000000  0.57142857
  0.28571429  0.00000000  0.71428571
  0.28571429  0.00000000  0.85714286
  0.28571429  0.14285714  0.00000000
  0.28571429  0.14285714  0.14285714
  0.28571429  0.14285714  0.28571429
  0.28571429  0.14285714  0.42857143
  0.28571429  0.14285714  0.57142857
  0.28571429  0.14285714  0.71428571
  0.28571429  0.14285714  0.85714286
  0.28571429  0.28571429  0.00000000
  0.28571429  0.28571429  0.14285714
  0.28571429  0.28571429  0.28571429
  0.28571429  0.28571429  0.42857143
  0.28571429  0.28571429  0.57142857
  0.28571429  0.28571429  0.71428571
  0.28571429  0.28571429  0.85714286
  0.28571429  0.42857143  0.00000000
  0.28571429  0.42857143  0.14285714
  0.28571429  0.42857143  0.28571429
  0.28571429  0.42857143  0.42857143
  0.28571429  0.42857143  0.57142857
  0.28571429  0.42857143  0.71428571
  0.28571429  0.42857143  0.85714286
  0.28571429  0.57142857  0.00000000
  0.28571429  0.57142857  0.14285714
  0.28571429  0.57142857  0.28571429
  0.28571429  0.57142857  0.42857143
  0.28571429  0.57142857  0.57142857
  0.28571429  0.57142857  0.71428571
  0.28571429  0.57142857  0.85714286
  0.28571429  0.71428571  0.00000000
  0.28571429  0.71428571  0.14285714
  0.28571429  0.71428571  0.28571429
  0.28571429  0.71428571  0.42857143
  0.28571429  0.71428571  0.57142857
  0.28571429  0.71428571  0.71428571
  0.28571429  0.71428571  0.85714286
  0.28571429  0.85714286  0.00000000
  0.28571429  0.85714286  0.14285714
  0.28571429  0.85714286  0.28571429
  0.28571429  0.85714286  0.42857143
  0.28571429  0.85714286  0.57142857
  0.28571429  0.85714286  0.71428571
  0.28571429  0.85714286  0.85714286
  0.42857143  0.00000000  0.00000000
  0.42857143  0.00000000  0.14285714
  0.42857143  0.00000000  0.28571429
  0.42857143  0.00000000  0.42857143
  0.42857143  0.00000000  0.57142857
  0.42857143  0.00000000  0.71428571
  0.42857143  0.00000000  0.85714286
  0.42857143  0.14285714  0.00000000
  0.42857143  0.14285714  0.14285714
  0.42857143  0.14285714  0.28571429
  0.42857143  0.14285714  0.42857143
  0.42857143  0.14285714  0.57142857
  0.42857143  0.14285714  0.71428571
  0.42857143  0.14285714  0.85714286
  0.42857143  0.28571429  0.00000000
  0.42857143  0.28571429  0.14285714
  0.42857143  0.28571429  0.28571429
  0.42857143  0.28571429  0.42857143
  0.42857143  0.28571429  0.57142857
  0.42857143  0.28571429  0.71428571
  0.42857143  0.28571429  0.85714286
  0.42857143  0.42857143  0.00000000
  0.42857143  0.42857143  0.14285714
  0.42857143  0.42857143  0.28571429
  0.42857143  0.42857143  0.42857143
  0.42857143  0.42857143  0.57142857
  0.42857143  0.42857143  0.71428571
  0.42857143  0.42857143  0.85714286
  0.42857143  0.57142857  0.00000000
  0.42857143  0.57142857  0.14285714
  0.42857143  0.57142857  0.28571429
  0.42857143  0.57142857  0.42857143
  0.42857143  0.57142857  0.57142857
  0.42857143  0.57142857  0.71428571
  0.42857143  0.57142857  0.85714286
  0.42857143  0.71428571  0.00000000
  0.42857143  0.71428571  0.14285714
  0.42857143  0.71428571  0.28571429
  0.42857143  0.71428571  0.42857143
  0.42857143  0.71428571  0.57142857
  0.42857143  0.71428571  0.71428571
  0.42857143  0.71428571  0.85714286
  0.42857143  0.85714286  0.00000000
  0.42857143  0.85714286  0.14285714
  0.42857143  0.85714286  0.28571429
  0.42857143  0.85714286  0.42857143
  0.42857143  0.85714286  0.57142857
  0.42857143  0.85714286  0.71428571
  0.42857143  0.85714286  0.85714286
  0.57142857  0.00000000  0.00000000
  0.57142857  0.00000000  0.14285714
  0.57142857  0.00000000  0.28571429
  0.57142857  0.00000000  0.42857143
  0.57142857  0.00000000  0.57142857
  0.57142857  0.00000000  0.71428571
  0.57142857  0.00000000  0.85714286
  0.57142857  0.14285714  0.00000000
  0.57142857  0.14285714  0.14285714
  0.57142857  0.14285714  0.28571429
  0.57142857  0.14285714  0.42857143
  0.57142857  0.14285714  0.57142857
  0.57142857  0.14285714  0.71428571
  0.57142857  0.14285714  0.85714286
  0.57142857  0.28571429  0.00000000
  0.57142857  0.28571429  0.14285714
  0.57142857  0.28571429  0.28571429
  0.57142857  0.28571429  0.42857143
  0.57142857  0.28571429  0.57142857
  0.57142857  0.28571429  0.71428571
  0.57142857  0.28571429  0.85714286
  0.57142857  0.42857143  0.00000000
  0.57142857  0.42857143  0.14285714
  0.57142857  0.42857143  0.28571429
  0.57142857  0.42857143  0.42857143
  0.57142857  0.42857143  0.57142857
  0.57142857  0.42857143  0.71428571
  0.57142857  0.42857143  0.85714286
  0.57142857  0.57142857  0.00000000
  0.57142857  0.57142857  0.14285714
  0.57142857  0.57142857  0.28571429
  0.57142857  0.57142857  0.42857143
  0.57142857  0.57142857  0.57142857
  0.57142857  0.57142857  0.71428571
  0.57142857  0.57142857  0.85714286
  0.57142857  0.71428571  0.00000000
  0.57142857  0.71428571  0.14285714
  0.57142857  0.71428571  0.28571429
  0.57142857  0.71428571  0.42857143
  0.57142857  0.71428571  0.57142857
  0.57142857  0.71428571  0.71428571
  0.57142857  0.71428571  0.85714286
  0.57142857  0.85714286  0.00000000
  0.57142857  0.85714286  0.14285714
  0.57142857  0.85714286  0.28571429
  0.57142857  0.85714286  0.42857143
  0.57142857  0.85714286  0.57142857
  0.57142857  0.85714286  0.71428571
  0.57142857  0.85714286  0.85714286
  0.71428571  0.00000000  0.00000000
  0.71428571  0.00000000  0.14285714
  0.71428571  0.00000000  0.28571429
  0.71428571  0.00000000  0.42857143
  0.71428571  0.00000000  0.57142857
  0.71428571  0.00000000  0.71428571
  0.71428571  0.00000000  0.85714286
  0.71428571  0.14285714  0.00000000
  0.71428571  0.14285714  0.14285714
  0.71428571  0.14285714  0.28571429
  0.71428571  0.14285714  0.42857143
  0.71428571  0.14285714  0.57142857
  0.71428571  0.14285714  0.71428571
  0.71428571  0.14285714  0.85714286
  0.71428571  0.28571429  0.00000000
  0.71428571  0.28571429  0.14285714
  0.71428571  0.28571429  0.28571429
  0.71428571  0.28571429  0.42857143
  0.71428571  0.28571429  0.57142857
  0.71428571  0.28571429  0.71428571
  0.71428571  0.28571429  0.85714286
  0.71428571  0.42857143  0.00000000
  0.71428571  0.42857143  0.14285714
  0.71428571  0.42857143  0.28571429
  0.71428571  0.42857143  0.42857143
  0.71428571  0.42857143  0.57142857
  0.71428571  0.42857143  0.71428571
  0.71428571  0.42857143  0.85714286
  0.71428571  0.57142857  0.00000000
  0.71428571  0.57142857  0.14285714
  0.71428571  0.57142857  0.28571429
  0.71428571  0.57142857  0.42857143
  0.71428571  0.57142857  0.57142857
  0.71428571  0.57142857  0.71428571
  0.71428571  0.57142857  0.85714286
  0.71428571  0.71428571  0.00000000
  0.71428571  0.71428571  0.14285714
  0.71428571  0.71428571  0.28571429
  0.71428571  0.71428571  0.42857143
  0.71428571  0.71428571  0.57142857
  0.71428571  0.71428571  0.71428571
  0.71428571  0.71428571  0.85714286
  0.71428571  0.85714286  0.00000000
  0.71428571  0.85714286  0.14285714
  0.71428571  0.85714286  0.28571429
  0.71428571  0.85714286  0.42857143
  0.71428571  0.85714286  0.57142857
  0.71428571  0.85714286  0.71428571
  0.71428571  0.85714286  0.85714286
  0.85714286  0.00000000  0.00000000
  0.85714286  0.00000000  0.14285714
  0.85714286  0.00000000  0.28571429
  0.85714286  0.00000000  0.42857143
  0.85714286  0.00000000  0.57142857
  0.85714286  0.00000000  0.71428571
  0.85714286  0.00000000  0.85714286
  0.85714286  0.14285714  0.00000000
  0.85714286  0.14285714  0.14285714
  0.85714286  0.14285714  0.28571429
  0.85714286  0.14285714  0.42857143
  0.85714286  0.14285714  0.57142857
  0.85714286  0.14285714  0.71428571
  0.85714286  0.14285714  0.85714286
  0.85714286  0.28571429  0.00000000
  0.85714286  0.28571429  0.14285714
  0.85714286  0.28571429  0.28571429
  0.85714286  0.28571429  0.42857143
  0.85714286  0.28571429  0.57142857
  0.85714286  0.28571429  0.71428571
  0.85714286  0.28571429  0.85714286
  0.85714286  0.42857143  0.00000000
  0.85714286  0.42857143  0.14285714
  0.85714286  0.42857143  0.28571429
  0.85714286  0.42857143  0.42857143
  0.85714286  0.42857143  0.57142857
  0.85714286  0.42857143  0.71428571
  0.85714286  0.42857143  0.85714286
  0.85714286  0.57142857  0.00000000
  0.85714286  0.57142857  0.14285714
  0.85714286  0.57142857  0.28571429
  0.85714286  0.57142857  0.42857143
  0.85714286  0.57142857  0.57142857
  0.85714286  0.57142857  0.71428571
  0.85714286  0.57142857  0.85714286
  0.85714286  0.71428571  0.00000000
  0.85714286  0.71428571  0.14285714
  0.85714286  0.71428571  0.28571429
  0.85714286  0.71428571  0.42857143
  0.85714286  0.71428571  0.57142857
  0.85714286  0.71428571  0.71428571
  0.85714286  0.71428571  0.85714286
  0.85714286  0.85714286  0.00000000
  0.85714286  0.85714286  0.14285714
  0.85714286  0.85714286  0.28571429
  0.85714286  0.85714286  0.42857143
  0.85714286  0.85714286  0.57142857
  0.85714286  0.85714286  0.71428571
  0.85714286  0.85714286  0.85714286
end kpoints
