num_bands = 184
num_wann = 10

exclude_bands = 1-40

begin projections
Cr:dz2
Nb:dz2
end projections

dis_froz_min = 4.12
dis_froz_max = 5.81089779
dis_win_min = -2
dis_win_max = 30

num_iter = 0
dis_num_iter =  200
kmesh_tol = 0.00001

use_bloch_phases = F

!write_hr = .true.
!write_tb = .true.
!bands_plot = .true.
!wannier_plot = F

begin kpoint_path
G 0.0 0.0 0.0   M 0.5 0.0 0.0
M 0.5 0.0 0.0   K .3333333 .3333333 0.0
K .3333333 .3333333 0.0   G 0.0 0.0 0.0
G 0.0 0.0 0.0   A 0.0 0.0 0.5
A 0.0 0.0 0.5   L 0.0 0.5 0.5
L 0.0 0.5 0.5   H .33333333333 0.3333333 0.5
H 0.3333333 0.3333333 0.5   A 0.0 0.0 0.5
end kpoint_path



begin unit_cell_cart
     6.9039998     0.0000000     0.0000000
    -3.4519999     5.9790392     0.0000000
     0.0000000     0.0000000    12.5699997
end unit_cell_cart

begin atoms_cart
Cr       0.0000000     0.0000000     6.2849998
Cr       0.0000000     0.0000000     0.0000000
Nb       0.0000000     0.0000000     3.1424999
Nb       0.0000000     0.0000000     9.4274998
Nb       3.4519999     0.0000000     3.1424999
Nb       3.4519999     0.0000000     9.4274998
Nb      -1.7260000     2.9895196     3.1424999
Nb      -1.7260000     2.9895196     9.4274998
Nb       1.7260000     2.9895196     3.1424999
Nb       1.7260000     2.9895196     9.4274998
Se      -0.0000000     3.9860263    10.9987497
Se       3.4519997     1.9930130     1.5712500
Se       3.4519997     1.9930130     4.7137499
Se      -0.0000000     3.9860263     7.8562498
Se       0.0000000     1.9969990     4.7137499
Se       3.4519999     3.9820402     7.8562498
Se       1.7225480     4.9805397     4.7137499
Se       1.7294519     0.9984995     7.8562498
Se      -1.7225480     4.9805397     4.7137499
Se       5.1745479     0.9984995     7.8562498
Se       3.4519999     3.9820402    10.9987497
Se       0.0000000     1.9969990     1.5712500
Se       1.7294519     0.9984995    10.9987497
Se       1.7225480     4.9805397     1.5712500
Se       5.1745479     0.9984995    10.9987497
Se      -1.7225480     4.9805397     1.5712500
end atoms_cart

mp_grid =    12    12     6

begin kpoints
      0.000000000000      0.000000000000      0.000000000000
      0.083333333333      0.000000000000      0.000000000000
      0.166666666667      0.000000000000      0.000000000000
      0.250000000000      0.000000000000      0.000000000000
      0.333333333333      0.000000000000      0.000000000000
      0.416666666667      0.000000000000      0.000000000000
      0.500000000000      0.000000000000      0.000000000000
      0.083333333333      0.083333333333      0.000000000000
      0.166666666667      0.083333333333      0.000000000000
      0.250000000000      0.083333333333      0.000000000000
      0.333333333333      0.083333333333      0.000000000000
      0.416666666667      0.083333333333      0.000000000000
      0.166666666667      0.166666666667      0.000000000000
      0.250000000000      0.166666666667      0.000000000000
      0.333333333333      0.166666666667      0.000000000000
      0.416666666667      0.166666666667      0.000000000000
      0.250000000000      0.250000000000      0.000000000000
      0.333333333333      0.250000000000      0.000000000000
      0.333333333333      0.333333333333      0.000000000000
      0.000000000000      0.000000000000      0.166666666667
      0.083333333333      0.000000000000      0.166666666667
      0.166666666667      0.000000000000      0.166666666667
      0.250000000000      0.000000000000      0.166666666667
      0.333333333333      0.000000000000      0.166666666667
      0.416666666667      0.000000000000      0.166666666667
      0.500000000000      0.000000000000      0.166666666667
      0.083333333333      0.083333333333      0.166666666667
      0.166666666667      0.083333333333      0.166666666667
      0.250000000000      0.083333333333      0.166666666667
      0.333333333333      0.083333333333      0.166666666667
      0.416666666667      0.083333333333      0.166666666667
      0.166666666667      0.166666666667      0.166666666667
      0.250000000000      0.166666666667      0.166666666667
      0.333333333333      0.166666666667      0.166666666667
      0.416666666667      0.166666666667      0.166666666667
      0.250000000000      0.250000000000      0.166666666667
      0.333333333333      0.250000000000      0.166666666667
      0.333333333333      0.333333333333      0.166666666667
      0.000000000000      0.000000000000      0.333333333333
      0.083333333333      0.000000000000      0.333333333333
      0.166666666667      0.000000000000      0.333333333333
      0.250000000000      0.000000000000      0.333333333333
      0.333333333333      0.000000000000      0.333333333333
      0.416666666667      0.000000000000      0.333333333333
      0.500000000000      0.000000000000      0.333333333333
      0.083333333333      0.083333333333      0.333333333333
      0.166666666667      0.083333333333      0.333333333333
      0.250000000000      0.083333333333      0.333333333333
      0.333333333333      0.083333333333      0.333333333333
      0.416666666667      0.083333333333      0.333333333333
      0.166666666667      0.166666666667      0.333333333333
      0.250000000000      0.166666666667      0.333333333333
      0.333333333333      0.166666666667      0.333333333333
      0.416666666667      0.166666666667      0.333333333333
      0.250000000000      0.250000000000      0.333333333333
      0.333333333333      0.250000000000      0.333333333333
      0.333333333333      0.333333333333      0.333333333333
      0.000000000000      0.000000000000      0.500000000000
      0.083333333333      0.000000000000      0.500000000000
      0.166666666667      0.000000000000      0.500000000000
      0.250000000000      0.000000000000      0.500000000000
      0.333333333333      0.000000000000      0.500000000000
      0.416666666667      0.000000000000      0.500000000000
      0.500000000000      0.000000000000      0.500000000000
      0.083333333333      0.083333333333      0.500000000000
      0.166666666667      0.083333333333      0.500000000000
      0.250000000000      0.083333333333      0.500000000000
      0.333333333333      0.083333333333      0.500000000000
      0.416666666667      0.083333333333      0.500000000000
      0.166666666667      0.166666666667      0.500000000000
      0.250000000000      0.166666666667      0.500000000000
      0.333333333333      0.166666666667      0.500000000000
      0.416666666667      0.166666666667      0.500000000000
      0.250000000000      0.250000000000      0.500000000000
      0.333333333333      0.250000000000      0.500000000000
      0.333333333333      0.333333333333      0.500000000000
     -0.083333333333     -0.000000000000     -0.000000000000
     -0.083333333333      0.083333333333      0.000000000000
      0.083333333333     -0.083333333333     -0.000000000000
      0.000000000000     -0.083333333333      0.000000000000
     -0.000000000000      0.083333333333     -0.000000000000
     -0.166666666667     -0.000000000000     -0.000000000000
     -0.166666666667      0.166666666667      0.000000000000
      0.166666666667     -0.166666666667     -0.000000000000
      0.000000000000     -0.166666666667      0.000000000000
     -0.000000000000      0.166666666667     -0.000000000000
     -0.250000000000     -0.000000000000     -0.000000000000
     -0.250000000000      0.250000000000      0.000000000000
      0.250000000000     -0.250000000000     -0.000000000000
      0.000000000000     -0.250000000000      0.000000000000
     -0.000000000000      0.250000000000     -0.000000000000
     -0.333333333333     -0.000000000000     -0.000000000000
     -0.333333333333      0.333333333333      0.000000000000
      0.333333333333     -0.333333333333     -0.000000000000
      0.000000000000     -0.333333333333      0.000000000000
     -0.000000000000      0.333333333333     -0.000000000000
     -0.416666666667     -0.000000000000     -0.000000000000
     -0.416666666667      0.416666666667      0.000000000000
      0.416666666667     -0.416666666667     -0.000000000000
      0.000000000000     -0.416666666667      0.000000000000
     -0.000000000000      0.416666666667     -0.000000000000
     -0.500000000000      0.500000000000      0.000000000000
      0.000000000000     -0.500000000000      0.000000000000
     -0.083333333333     -0.083333333333     -0.000000000000
     -0.166666666667      0.083333333333      0.000000000000
      0.166666666667     -0.083333333333     -0.000000000000
      0.083333333333     -0.166666666667      0.000000000000
     -0.083333333333      0.166666666667     -0.000000000000
     -0.166666666667     -0.083333333333     -0.000000000000
     -0.250000000000      0.166666666667      0.000000000000
      0.250000000000     -0.166666666667     -0.000000000000
      0.083333333333     -0.250000000000      0.000000000000
     -0.083333333333      0.250000000000     -0.000000000000
      0.166666666667     -0.250000000000     -0.000000000000
     -0.166666666667      0.250000000000      0.000000000000
     -0.250000000000      0.083333333333     -0.000000000000
      0.250000000000     -0.083333333333      0.000000000000
      0.083333333333      0.166666666667     -0.000000000000
     -0.083333333333     -0.166666666667      0.000000000000
     -0.250000000000     -0.083333333333     -0.000000000000
     -0.333333333333      0.250000000000      0.000000000000
      0.333333333333     -0.250000000000     -0.000000000000
      0.083333333333     -0.333333333333      0.000000000000
     -0.083333333333      0.333333333333     -0.000000000000
      0.250000000000     -0.333333333333     -0.000000000000
     -0.250000000000      0.333333333333      0.000000000000
     -0.333333333333      0.083333333333     -0.000000000000
      0.333333333333     -0.083333333333      0.000000000000
      0.083333333333      0.250000000000     -0.000000000000
     -0.083333333333     -0.250000000000      0.000000000000
     -0.333333333333     -0.083333333333     -0.000000000000
     -0.416666666667      0.333333333333      0.000000000000
      0.416666666667     -0.333333333333     -0.000000000000
      0.083333333333     -0.416666666667      0.000000000000
     -0.083333333333      0.416666666667     -0.000000000000
      0.333333333333     -0.416666666667     -0.000000000000
     -0.333333333333      0.416666666667      0.000000000000
     -0.416666666667      0.083333333333     -0.000000000000
      0.416666666667     -0.083333333333      0.000000000000
      0.083333333333      0.333333333333     -0.000000000000
     -0.083333333333     -0.333333333333      0.000000000000
     -0.416666666667     -0.083333333333     -0.000000000000
     -0.500000000000      0.416666666667      0.000000000000
      0.500000000000     -0.416666666667     -0.000000000000
      0.083333333333     -0.500000000000      0.000000000000
     -0.083333333333      0.500000000000     -0.000000000000
      0.416666666667     -0.500000000000     -0.000000000000
     -0.416666666667      0.500000000000      0.000000000000
     -0.500000000000      0.083333333333     -0.000000000000
      0.500000000000     -0.083333333333      0.000000000000
      0.083333333333      0.416666666667     -0.000000000000
     -0.083333333333     -0.416666666667      0.000000000000
     -0.166666666667     -0.166666666667     -0.000000000000
     -0.333333333333      0.166666666667      0.000000000000
      0.333333333333     -0.166666666667     -0.000000000000
      0.166666666667     -0.333333333333      0.000000000000
     -0.166666666667      0.333333333333     -0.000000000000
     -0.250000000000     -0.166666666667     -0.000000000000
     -0.416666666667      0.250000000000      0.000000000000
      0.416666666667     -0.250000000000     -0.000000000000
      0.166666666667     -0.416666666667      0.000000000000
     -0.166666666667      0.416666666667     -0.000000000000
      0.250000000000     -0.416666666667     -0.000000000000
     -0.250000000000      0.416666666667      0.000000000000
     -0.416666666667      0.166666666667     -0.000000000000
      0.416666666667     -0.166666666667      0.000000000000
      0.166666666667      0.250000000000     -0.000000000000
     -0.166666666667     -0.250000000000      0.000000000000
     -0.333333333333     -0.166666666667     -0.000000000000
     -0.500000000000      0.333333333333      0.000000000000
      0.500000000000     -0.333333333333     -0.000000000000
      0.166666666667     -0.500000000000      0.000000000000
     -0.166666666667      0.500000000000     -0.000000000000
      0.333333333333     -0.500000000000     -0.000000000000
     -0.333333333333      0.500000000000      0.000000000000
     -0.500000000000      0.166666666667     -0.000000000000
      0.500000000000     -0.166666666667      0.000000000000
      0.166666666667      0.333333333333     -0.000000000000
     -0.166666666667     -0.333333333333      0.000000000000
     -0.416666666667     -0.166666666667     -0.000000000000
     -0.583333333333      0.416666666667      0.000000000000
      0.583333333333     -0.416666666667     -0.000000000000
      0.166666666667     -0.583333333333      0.000000000000
     -0.166666666667      0.583333333333     -0.000000000000
     -0.250000000000     -0.250000000000     -0.000000000000
     -0.500000000000      0.250000000000      0.000000000000
      0.500000000000     -0.250000000000     -0.000000000000
      0.250000000000     -0.500000000000      0.000000000000
     -0.250000000000      0.500000000000     -0.000000000000
     -0.333333333333     -0.250000000000     -0.000000000000
     -0.583333333333      0.333333333333      0.000000000000
      0.583333333333     -0.333333333333     -0.000000000000
      0.250000000000     -0.583333333333      0.000000000000
     -0.250000000000      0.583333333333     -0.000000000000
      0.333333333333     -0.583333333333     -0.000000000000
     -0.333333333333      0.583333333333      0.000000000000
     -0.583333333333      0.250000000000     -0.000000000000
      0.583333333333     -0.250000000000      0.000000000000
      0.250000000000      0.333333333333     -0.000000000000
     -0.250000000000     -0.333333333333      0.000000000000
     -0.333333333333     -0.333333333333     -0.000000000000
     -0.000000000000     -0.000000000000     -0.166666666667
     -0.083333333333     -0.000000000000     -0.166666666667
     -0.083333333333      0.083333333333      0.166666666667
      0.083333333333     -0.083333333333     -0.166666666667
      0.000000000000     -0.083333333333      0.166666666667
     -0.000000000000      0.083333333333     -0.166666666667
     -0.000000000000      0.083333333333      0.166666666667
      0.000000000000     -0.083333333333     -0.166666666667
     -0.083333333333     -0.000000000000      0.166666666667
      0.083333333333      0.000000000000     -0.166666666667
      0.083333333333     -0.083333333333      0.166666666667
     -0.083333333333      0.083333333333     -0.166666666667
     -0.166666666667     -0.000000000000     -0.166666666667
     -0.166666666667      0.166666666667      0.166666666667
      0.166666666667     -0.166666666667     -0.166666666667
      0.000000000000     -0.166666666667      0.166666666667
     -0.000000000000      0.166666666667     -0.166666666667
     -0.000000000000      0.166666666667      0.166666666667
      0.000000000000     -0.166666666667     -0.166666666667
     -0.166666666667     -0.000000000000      0.166666666667
      0.166666666667      0.000000000000     -0.166666666667
      0.166666666667     -0.166666666667      0.166666666667
     -0.166666666667      0.166666666667     -0.166666666667
     -0.250000000000     -0.000000000000     -0.166666666667
     -0.250000000000      0.250000000000      0.166666666667
      0.250000000000     -0.250000000000     -0.166666666667
      0.000000000000     -0.250000000000      0.166666666667
     -0.000000000000      0.250000000000     -0.166666666667
     -0.000000000000      0.250000000000      0.166666666667
      0.000000000000     -0.250000000000     -0.166666666667
     -0.250000000000     -0.000000000000      0.166666666667
      0.250000000000      0.000000000000     -0.166666666667
      0.250000000000     -0.250000000000      0.166666666667
     -0.250000000000      0.250000000000     -0.166666666667
     -0.333333333333     -0.000000000000     -0.166666666667
     -0.333333333333      0.333333333333      0.166666666667
      0.333333333333     -0.333333333333     -0.166666666667
      0.000000000000     -0.333333333333      0.166666666667
     -0.000000000000      0.333333333333     -0.166666666667
     -0.000000000000      0.333333333333      0.166666666667
      0.000000000000     -0.333333333333     -0.166666666667
     -0.333333333333     -0.000000000000      0.166666666667
      0.333333333333      0.000000000000     -0.166666666667
      0.333333333333     -0.333333333333      0.166666666667
     -0.333333333333      0.333333333333     -0.166666666667
     -0.416666666667     -0.000000000000     -0.166666666667
     -0.416666666667      0.416666666667      0.166666666667
      0.416666666667     -0.416666666667     -0.166666666667
      0.000000000000     -0.416666666667      0.166666666667
     -0.000000000000      0.416666666667     -0.166666666667
     -0.000000000000      0.416666666667      0.166666666667
      0.000000000000     -0.416666666667     -0.166666666667
     -0.416666666667     -0.000000000000      0.166666666667
      0.416666666667      0.000000000000     -0.166666666667
      0.416666666667     -0.416666666667      0.166666666667
     -0.416666666667      0.416666666667     -0.166666666667
     -0.500000000000     -0.000000000000     -0.166666666667
     -0.500000000000      0.500000000000      0.166666666667
      0.500000000000     -0.500000000000     -0.166666666667
      0.000000000000     -0.500000000000      0.166666666667
     -0.000000000000      0.500000000000     -0.166666666667
     -0.083333333333     -0.083333333333     -0.166666666667
     -0.166666666667      0.083333333333      0.166666666667
      0.166666666667     -0.083333333333     -0.166666666667
      0.083333333333     -0.166666666667      0.166666666667
     -0.083333333333      0.166666666667     -0.166666666667
      0.083333333333     -0.166666666667     -0.166666666667
     -0.083333333333      0.166666666667      0.166666666667
     -0.166666666667      0.083333333333     -0.166666666667
      0.166666666667     -0.083333333333      0.166666666667
      0.083333333333      0.083333333333     -0.166666666667
     -0.083333333333     -0.083333333333      0.166666666667
     -0.166666666667     -0.083333333333     -0.166666666667
     -0.250000000000      0.166666666667      0.166666666667
      0.250000000000     -0.166666666667     -0.166666666667
      0.083333333333     -0.250000000000      0.166666666667
     -0.083333333333      0.250000000000     -0.166666666667
      0.166666666667     -0.250000000000     -0.166666666667
     -0.166666666667      0.250000000000      0.166666666667
     -0.250000000000      0.083333333333     -0.166666666667
      0.250000000000     -0.083333333333      0.166666666667
      0.083333333333      0.166666666667     -0.166666666667
     -0.083333333333     -0.166666666667      0.166666666667
     -0.083333333333      0.250000000000      0.166666666667
      0.083333333333     -0.250000000000     -0.166666666667
     -0.166666666667     -0.083333333333      0.166666666667
      0.166666666667      0.083333333333     -0.166666666667
      0.250000000000     -0.166666666667      0.166666666667
     -0.250000000000      0.166666666667     -0.166666666667
     -0.083333333333     -0.166666666667     -0.166666666667
      0.083333333333      0.166666666667      0.166666666667
     -0.166666666667      0.250000000000     -0.166666666667
      0.166666666667     -0.250000000000      0.166666666667
      0.250000000000     -0.083333333333     -0.166666666667
     -0.250000000000      0.083333333333      0.166666666667
     -0.250000000000     -0.083333333333     -0.166666666667
     -0.333333333333      0.250000000000      0.166666666667
      0.333333333333     -0.250000000000     -0.166666666667
      0.083333333333     -0.333333333333      0.166666666667
     -0.083333333333      0.333333333333     -0.166666666667
      0.250000000000     -0.333333333333     -0.166666666667
     -0.250000000000      0.333333333333      0.166666666667
     -0.333333333333      0.083333333333     -0.166666666667
      0.333333333333     -0.083333333333      0.166666666667
      0.083333333333      0.250000000000     -0.166666666667
     -0.083333333333     -0.250000000000      0.166666666667
     -0.083333333333      0.333333333333      0.166666666667
      0.083333333333     -0.333333333333     -0.166666666667
     -0.250000000000     -0.083333333333      0.166666666667
      0.250000000000      0.083333333333     -0.166666666667
      0.333333333333     -0.250000000000      0.166666666667
     -0.333333333333      0.250000000000     -0.166666666667
     -0.083333333333     -0.250000000000     -0.166666666667
      0.083333333333      0.250000000000      0.166666666667
     -0.250000000000      0.333333333333     -0.166666666667
      0.250000000000     -0.333333333333      0.166666666667
      0.333333333333     -0.083333333333     -0.166666666667
     -0.333333333333      0.083333333333      0.166666666667
     -0.333333333333     -0.083333333333     -0.166666666667
     -0.416666666667      0.333333333333      0.166666666667
      0.416666666667     -0.333333333333     -0.166666666667
      0.083333333333     -0.416666666667      0.166666666667
     -0.083333333333      0.416666666667     -0.166666666667
      0.333333333333     -0.416666666667     -0.166666666667
     -0.333333333333      0.416666666667      0.166666666667
     -0.416666666667      0.083333333333     -0.166666666667
      0.416666666667     -0.083333333333      0.166666666667
      0.083333333333      0.333333333333     -0.166666666667
     -0.083333333333     -0.333333333333      0.166666666667
     -0.083333333333      0.416666666667      0.166666666667
      0.083333333333     -0.416666666667     -0.166666666667
     -0.333333333333     -0.083333333333      0.166666666667
      0.333333333333      0.083333333333     -0.166666666667
      0.416666666667     -0.333333333333      0.166666666667
     -0.416666666667      0.333333333333     -0.166666666667
     -0.083333333333     -0.333333333333     -0.166666666667
      0.083333333333      0.333333333333      0.166666666667
     -0.333333333333      0.416666666667     -0.166666666667
      0.333333333333     -0.416666666667      0.166666666667
      0.416666666667     -0.083333333333     -0.166666666667
     -0.416666666667      0.083333333333      0.166666666667
     -0.416666666667     -0.083333333333     -0.166666666667
     -0.500000000000      0.416666666667      0.166666666667
      0.500000000000     -0.416666666667     -0.166666666667
      0.083333333333     -0.500000000000      0.166666666667
     -0.083333333333      0.500000000000     -0.166666666667
      0.416666666667     -0.500000000000     -0.166666666667
     -0.416666666667      0.500000000000      0.166666666667
     -0.500000000000      0.083333333333     -0.166666666667
      0.500000000000     -0.083333333333      0.166666666667
      0.083333333333      0.416666666667     -0.166666666667
     -0.083333333333     -0.416666666667      0.166666666667
     -0.083333333333      0.500000000000      0.166666666667
      0.083333333333     -0.500000000000     -0.166666666667
     -0.416666666667     -0.083333333333      0.166666666667
      0.416666666667      0.083333333333     -0.166666666667
      0.500000000000     -0.416666666667      0.166666666667
     -0.500000000000      0.416666666667     -0.166666666667
     -0.083333333333     -0.416666666667     -0.166666666667
      0.083333333333      0.416666666667      0.166666666667
     -0.416666666667      0.500000000000     -0.166666666667
      0.416666666667     -0.500000000000      0.166666666667
      0.500000000000     -0.083333333333     -0.166666666667
     -0.500000000000      0.083333333333      0.166666666667
     -0.166666666667     -0.166666666667     -0.166666666667
     -0.333333333333      0.166666666667      0.166666666667
      0.333333333333     -0.166666666667     -0.166666666667
      0.166666666667     -0.333333333333      0.166666666667
     -0.166666666667      0.333333333333     -0.166666666667
      0.166666666667     -0.333333333333     -0.166666666667
     -0.166666666667      0.333333333333      0.166666666667
     -0.333333333333      0.166666666667     -0.166666666667
      0.333333333333     -0.166666666667      0.166666666667
      0.166666666667      0.166666666667     -0.166666666667
     -0.166666666667     -0.166666666667      0.166666666667
     -0.250000000000     -0.166666666667     -0.166666666667
     -0.416666666667      0.250000000000      0.166666666667
      0.416666666667     -0.250000000000     -0.166666666667
      0.166666666667     -0.416666666667      0.166666666667
     -0.166666666667      0.416666666667     -0.166666666667
      0.250000000000     -0.416666666667     -0.166666666667
     -0.250000000000      0.416666666667      0.166666666667
     -0.416666666667      0.166666666667     -0.166666666667
      0.416666666667     -0.166666666667      0.166666666667
      0.166666666667      0.250000000000     -0.166666666667
     -0.166666666667     -0.250000000000      0.166666666667
     -0.166666666667      0.416666666667      0.166666666667
      0.166666666667     -0.416666666667     -0.166666666667
     -0.250000000000     -0.166666666667      0.166666666667
      0.250000000000      0.166666666667     -0.166666666667
      0.416666666667     -0.250000000000      0.166666666667
     -0.416666666667      0.250000000000     -0.166666666667
     -0.166666666667     -0.250000000000     -0.166666666667
      0.166666666667      0.250000000000      0.166666666667
     -0.250000000000      0.416666666667     -0.166666666667
      0.250000000000     -0.416666666667      0.166666666667
      0.416666666667     -0.166666666667     -0.166666666667
     -0.416666666667      0.166666666667      0.166666666667
     -0.333333333333     -0.166666666667     -0.166666666667
     -0.500000000000      0.333333333333      0.166666666667
      0.500000000000     -0.333333333333     -0.166666666667
      0.166666666667     -0.500000000000      0.166666666667
     -0.166666666667      0.500000000000     -0.166666666667
      0.333333333333     -0.500000000000     -0.166666666667
     -0.333333333333      0.500000000000      0.166666666667
     -0.500000000000      0.166666666667     -0.166666666667
      0.500000000000     -0.166666666667      0.166666666667
      0.166666666667      0.333333333333     -0.166666666667
     -0.166666666667     -0.333333333333      0.166666666667
     -0.166666666667      0.500000000000      0.166666666667
      0.166666666667     -0.500000000000     -0.166666666667
     -0.333333333333     -0.166666666667      0.166666666667
      0.333333333333      0.166666666667     -0.166666666667
      0.500000000000     -0.333333333333      0.166666666667
     -0.500000000000      0.333333333333     -0.166666666667
     -0.166666666667     -0.333333333333     -0.166666666667
      0.166666666667      0.333333333333      0.166666666667
     -0.333333333333      0.500000000000     -0.166666666667
      0.333333333333     -0.500000000000      0.166666666667
      0.500000000000     -0.166666666667     -0.166666666667
     -0.500000000000      0.166666666667      0.166666666667
     -0.416666666667     -0.166666666667     -0.166666666667
     -0.583333333333      0.416666666667      0.166666666667
      0.583333333333     -0.416666666667     -0.166666666667
      0.166666666667     -0.583333333333      0.166666666667
     -0.166666666667      0.583333333333     -0.166666666667
      0.416666666667     -0.583333333333     -0.166666666667
     -0.416666666667      0.583333333333      0.166666666667
     -0.583333333333      0.166666666667     -0.166666666667
      0.583333333333     -0.166666666667      0.166666666667
      0.166666666667      0.416666666667     -0.166666666667
     -0.166666666667     -0.416666666667      0.166666666667
     -0.250000000000     -0.250000000000     -0.166666666667
     -0.500000000000      0.250000000000      0.166666666667
      0.500000000000     -0.250000000000     -0.166666666667
      0.250000000000     -0.500000000000      0.166666666667
     -0.250000000000      0.500000000000     -0.166666666667
      0.250000000000     -0.500000000000     -0.166666666667
     -0.250000000000      0.500000000000      0.166666666667
     -0.500000000000      0.250000000000     -0.166666666667
      0.500000000000     -0.250000000000      0.166666666667
      0.250000000000      0.250000000000     -0.166666666667
     -0.250000000000     -0.250000000000      0.166666666667
     -0.333333333333     -0.250000000000     -0.166666666667
     -0.583333333333      0.333333333333      0.166666666667
      0.583333333333     -0.333333333333     -0.166666666667
      0.250000000000     -0.583333333333      0.166666666667
     -0.250000000000      0.583333333333     -0.166666666667
      0.333333333333     -0.583333333333     -0.166666666667
     -0.333333333333      0.583333333333      0.166666666667
     -0.583333333333      0.250000000000     -0.166666666667
      0.583333333333     -0.250000000000      0.166666666667
      0.250000000000      0.333333333333     -0.166666666667
     -0.250000000000     -0.333333333333      0.166666666667
     -0.250000000000      0.583333333333      0.166666666667
      0.250000000000     -0.583333333333     -0.166666666667