num_bands         =   29 ! 30
num_wann          =   11

!exclude_bands     = 1-6, 18-30

! dis_win_min       = -4
! dis_win_max       =  8
! dis_froz_min      = -1.5
! dis_froz_max      = 1.2
dis_num_iter      = 1000
! num_iter          = 3000
! dis_num_iter        = 0
num_iter            = 0

dis_conv_tol      = 1.0e-10
conv_tol          = 1.0e-10
conv_window       = 40

guiding_centres   = .true.
 
begin projections
Mo: dz2; dx2-y2; dxy; dyz; dxz
S: pz; px; py
end projections

write_hr         = .true.
bands_plot       = .true.
wannier_plot     = .true.

wannier_plot_supercell = 3

begin kpoint_path
G   0.00000     0.00000     0.00000   K   0.33333     0.33333     0.00000
K   0.33333     0.33333     0.00000   M   0.50000     0.00000     0.00000
M   0.50000     0.00000     0.00000   G   0.00000     0.00000     0.00000
end kpoint_path


begin unit_cell_cart
bohr
 5.983           0.0000000000          0.0000000000
-2.9915          5.181429990842296     0.0000000000
 0.0000000000    0.0000000000          59.83
end unit_cell_cart

begin atoms_frac
Mo 0.6666666666666666  0.3333333333333333  0.00000000000000000
S  0.3333333333333333  0.6666666666666666  0.049699999999999994
S  0.3333333333333333  0.6666666666666666  -0.049699999999999994
end atoms_frac

mp_grid           = 25 25 1

begin kpoints
  0.00000000  0.00000000  0.00000000
  0.00000000  0.04000000  0.00000000
  0.00000000  0.08000000  0.00000000
  0.00000000  0.12000000  0.00000000
  0.00000000  0.16000000  0.00000000
  0.00000000  0.20000000  0.00000000
  0.00000000  0.24000000  0.00000000
  0.00000000  0.28000000  0.00000000
  0.00000000  0.32000000  0.00000000
  0.00000000  0.36000000  0.00000000
  0.00000000  0.40000000  0.00000000
  0.00000000  0.44000000  0.00000000
  0.00000000  0.48000000  0.00000000
  0.00000000  0.52000000  0.00000000
  0.00000000  0.56000000  0.00000000
  0.00000000  0.60000000  0.00000000
  0.00000000  0.64000000  0.00000000
  0.00000000  0.68000000  0.00000000
  0.00000000  0.72000000  0.00000000
  0.00000000  0.76000000  0.00000000
  0.00000000  0.80000000  0.00000000
  0.00000000  0.84000000  0.00000000
  0.00000000  0.88000000  0.00000000
  0.00000000  0.92000000  0.00000000
  0.00000000  0.96000000  0.00000000
  0.04000000  0.00000000  0.00000000
  0.04000000  0.04000000  0.00000000
  0.04000000  0.08000000  0.00000000
  0.04000000  0.12000000  0.00000000
  0.04000000  0.16000000  0.00000000
  0.04000000  0.20000000  0.00000000
  0.04000000  0.24000000  0.00000000
  0.04000000  0.28000000  0.00000000
  0.04000000  0.32000000  0.00000000
  0.04000000  0.36000000  0.00000000
  0.04000000  0.40000000  0.00000000
  0.04000000  0.44000000  0.00000000
  0.04000000  0.48000000  0.00000000
  0.04000000  0.52000000  0.00000000
  0.04000000  0.56000000  0.00000000
  0.04000000  0.60000000  0.00000000
  0.04000000  0.64000000  0.00000000
  0.04000000  0.68000000  0.00000000
  0.04000000  0.72000000  0.00000000
  0.04000000  0.76000000  0.00000000
  0.04000000  0.80000000  0.00000000
  0.04000000  0.84000000  0.00000000
  0.04000000  0.88000000  0.00000000
  0.04000000  0.92000000  0.00000000
  0.04000000  0.96000000  0.00000000
  0.08000000  0.00000000  0.00000000
  0.08000000  0.04000000  0.00000000
  0.08000000  0.08000000  0.00000000
  0.08000000  0.12000000  0.00000000
  0.08000000  0.16000000  0.00000000
  0.08000000  0.20000000  0.00000000
  0.08000000  0.24000000  0.00000000
  0.08000000  0.28000000  0.00000000
  0.08000000  0.32000000  0.00000000
  0.08000000  0.36000000  0.00000000
  0.08000000  0.40000000  0.00000000
  0.08000000  0.44000000  0.00000000
  0.08000000  0.48000000  0.00000000
  0.08000000  0.52000000  0.00000000
  0.08000000  0.56000000  0.00000000
  0.08000000  0.60000000  0.00000000
  0.08000000  0.64000000  0.00000000
  0.08000000  0.68000000  0.00000000
  0.08000000  0.72000000  0.00000000
  0.08000000  0.76000000  0.00000000
  0.08000000  0.80000000  0.00000000
  0.08000000  0.84000000  0.00000000
  0.08000000  0.88000000  0.00000000
  0.08000000  0.92000000  0.00000000
  0.08000000  0.96000000  0.00000000
  0.12000000  0.00000000  0.00000000
  0.12000000  0.04000000  0.00000000
  0.12000000  0.08000000  0.00000000
  0.12000000  0.12000000  0.00000000
  0.12000000  0.16000000  0.00000000
  0.12000000  0.20000000  0.00000000
  0.12000000  0.24000000  0.00000000
  0.12000000  0.28000000  0.00000000
  0.12000000  0.32000000  0.00000000
  0.12000000  0.36000000  0.00000000
  0.12000000  0.40000000  0.00000000
  0.12000000  0.44000000  0.00000000
  0.12000000  0.48000000  0.00000000
  0.12000000  0.52000000  0.00000000
  0.12000000  0.56000000  0.00000000
  0.12000000  0.60000000  0.00000000
  0.12000000  0.64000000  0.00000000
  0.12000000  0.68000000  0.00000000
  0.12000000  0.72000000  0.00000000
  0.12000000  0.76000000  0.00000000
  0.12000000  0.80000000  0.00000000
  0.12000000  0.84000000  0.00000000
  0.12000000  0.88000000  0.00000000
  0.12000000  0.92000000  0.00000000
  0.12000000  0.96000000  0.00000000
  0.16000000  0.00000000  0.00000000
  0.16000000  0.04000000  0.00000000
  0.16000000  0.08000000  0.00000000
  0.16000000  0.12000000  0.00000000
  0.16000000  0.16000000  0.00000000
  0.16000000  0.20000000  0.00000000
  0.16000000  0.24000000  0.00000000
  0.16000000  0.28000000  0.00000000
  0.16000000  0.32000000  0.00000000
  0.16000000  0.36000000  0.00000000
  0.16000000  0.40000000  0.00000000
  0.16000000  0.44000000  0.00000000
  0.16000000  0.48000000  0.00000000
  0.16000000  0.52000000  0.00000000
  0.16000000  0.56000000  0.00000000
  0.16000000  0.60000000  0.00000000
  0.16000000  0.64000000  0.00000000
  0.16000000  0.68000000  0.00000000
  0.16000000  0.72000000  0.00000000
  0.16000000  0.76000000  0.00000000
  0.16000000  0.80000000  0.00000000
  0.16000000  0.84000000  0.00000000
  0.16000000  0.88000000  0.00000000
  0.16000000  0.92000000  0.00000000
  0.16000000  0.96000000  0.00000000
  0.20000000  0.00000000  0.00000000
  0.20000000  0.04000000  0.00000000
  0.20000000  0.08000000  0.00000000
  0.20000000  0.12000000  0.00000000
  0.20000000  0.16000000  0.00000000
  0.20000000  0.20000000  0.00000000
  0.20000000  0.24000000  0.00000000
  0.20000000  0.28000000  0.00000000
  0.20000000  0.32000000  0.00000000
  0.20000000  0.36000000  0.00000000
  0.20000000  0.40000000  0.00000000
  0.20000000  0.44000000  0.00000000
  0.20000000  0.48000000  0.00000000
  0.20000000  0.52000000  0.00000000
  0.20000000  0.56000000  0.00000000
  0.20000000  0.60000000  0.00000000
  0.20000000  0.64000000  0.00000000
  0.20000000  0.68000000  0.00000000
  0.20000000  0.72000000  0.00000000
  0.20000000  0.76000000  0.00000000
  0.20000000  0.80000000  0.00000000
  0.20000000  0.84000000  0.00000000
  0.20000000  0.88000000  0.00000000
  0.20000000  0.92000000  0.00000000
  0.20000000  0.96000000  0.00000000
  0.24000000  0.00000000  0.00000000
  0.24000000  0.04000000  0.00000000
  0.24000000  0.08000000  0.00000000
  0.24000000  0.12000000  0.00000000
  0.24000000  0.16000000  0.00000000
  0.24000000  0.20000000  0.00000000
  0.24000000  0.24000000  0.00000000
  0.24000000  0.28000000  0.00000000
  0.24000000  0.32000000  0.00000000
  0.24000000  0.36000000  0.00000000
  0.24000000  0.40000000  0.00000000
  0.24000000  0.44000000  0.00000000
  0.24000000  0.48000000  0.00000000
  0.24000000  0.52000000  0.00000000
  0.24000000  0.56000000  0.00000000
  0.24000000  0.60000000  0.00000000
  0.24000000  0.64000000  0.00000000
  0.24000000  0.68000000  0.00000000
  0.24000000  0.72000000  0.00000000
  0.24000000  0.76000000  0.00000000
  0.24000000  0.80000000  0.00000000
  0.24000000  0.84000000  0.00000000
  0.24000000  0.88000000  0.00000000
  0.24000000  0.92000000  0.00000000
  0.24000000  0.96000000  0.00000000
  0.28000000  0.00000000  0.00000000
  0.28000000  0.04000000  0.00000000
  0.28000000  0.08000000  0.00000000
  0.28000000  0.12000000  0.00000000
  0.28000000  0.16000000  0.00000000
  0.28000000  0.20000000  0.00000000
  0.28000000  0.24000000  0.00000000
  0.28000000  0.28000000  0.00000000
  0.28000000  0.32000000  0.00000000
  0.28000000  0.36000000  0.00000000
  0.28000000  0.40000000  0.00000000
  0.28000000  0.44000000  0.00000000
  0.28000000  0.48000000  0.00000000
  0.28000000  0.52000000  0.00000000
  0.28000000  0.56000000  0.00000000
  0.28000000  0.60000000  0.00000000
  0.28000000  0.64000000  0.00000000
  0.28000000  0.68000000  0.00000000
  0.28000000  0.72000000  0.00000000
  0.28000000  0.76000000  0.00000000
  0.28000000  0.80000000  0.00000000
  0.28000000  0.84000000  0.00000000
  0.28000000  0.88000000  0.00000000
  0.28000000  0.92000000  0.00000000
  0.28000000  0.96000000  0.00000000
  0.32000000  0.00000000  0.00000000
  0.32000000  0.04000000  0.00000000
  0.32000000  0.08000000  0.00000000
  0.32000000  0.12000000  0.00000000
  0.32000000  0.16000000  0.00000000
  0.32000000  0.20000000  0.00000000
  0.32000000  0.24000000  0.00000000
  0.32000000  0.28000000  0.00000000
  0.32000000  0.32000000  0.00000000
  0.32000000  0.36000000  0.00000000
  0.32000000  0.40000000  0.00000000
  0.32000000  0.44000000  0.00000000
  0.32000000  0.48000000  0.00000000
  0.32000000  0.52000000  0.00000000
  0.32000000  0.56000000  0.00000000
  0.32000000  0.60000000  0.00000000
  0.32000000  0.64000000  0.00000000
  0.32000000  0.68000000  0.00000000
  0.32000000  0.72000000  0.00000000
  0.32000000  0.76000000  0.00000000
  0.32000000  0.80000000  0.00000000
  0.32000000  0.84000000  0.00000000
  0.32000000  0.88000000  0.00000000
  0.32000000  0.92000000  0.00000000
  0.32000000  0.96000000  0.00000000
  0.36000000  0.00000000  0.00000000
  0.36000000  0.04000000  0.00000000
  0.36000000  0.08000000  0.00000000
  0.36000000  0.12000000  0.00000000
  0.36000000  0.16000000  0.00000000
  0.36000000  0.20000000  0.00000000
  0.36000000  0.24000000  0.00000000
  0.36000000  0.28000000  0.00000000
  0.36000000  0.32000000  0.00000000
  0.36000000  0.36000000  0.00000000
  0.36000000  0.40000000  0.00000000
  0.36000000  0.44000000  0.00000000
  0.36000000  0.48000000  0.00000000
  0.36000000  0.52000000  0.00000000
  0.36000000  0.56000000  0.00000000
  0.36000000  0.60000000  0.00000000
  0.36000000  0.64000000  0.00000000
  0.36000000  0.68000000  0.00000000
  0.36000000  0.72000000  0.00000000
  0.36000000  0.76000000  0.00000000
  0.36000000  0.80000000  0.00000000
  0.36000000  0.84000000  0.00000000
  0.36000000  0.88000000  0.00000000
  0.36000000  0.92000000  0.00000000
  0.36000000  0.96000000  0.00000000
  0.40000000  0.00000000  0.00000000
  0.40000000  0.04000000  0.00000000
  0.40000000  0.08000000  0.00000000
  0.40000000  0.12000000  0.00000000
  0.40000000  0.16000000  0.00000000
  0.40000000  0.20000000  0.00000000
  0.40000000  0.24000000  0.00000000
  0.40000000  0.28000000  0.00000000
  0.40000000  0.32000000  0.00000000
  0.40000000  0.36000000  0.00000000
  0.40000000  0.40000000  0.00000000
  0.40000000  0.44000000  0.00000000
  0.40000000  0.48000000  0.00000000
  0.40000000  0.52000000  0.00000000
  0.40000000  0.56000000  0.00000000
  0.40000000  0.60000000  0.00000000
  0.40000000  0.64000000  0.00000000
  0.40000000  0.68000000  0.00000000
  0.40000000  0.72000000  0.00000000
  0.40000000  0.76000000  0.00000000
  0.40000000  0.80000000  0.00000000
  0.40000000  0.84000000  0.00000000
  0.40000000  0.88000000  0.00000000
  0.40000000  0.92000000  0.00000000
  0.40000000  0.96000000  0.00000000
  0.44000000  0.00000000  0.00000000
  0.44000000  0.04000000  0.00000000
  0.44000000  0.08000000  0.00000000
  0.44000000  0.12000000  0.00000000
  0.44000000  0.16000000  0.00000000
  0.44000000  0.20000000  0.00000000
  0.44000000  0.24000000  0.00000000
  0.44000000  0.28000000  0.00000000
  0.44000000  0.32000000  0.00000000
  0.44000000  0.36000000  0.00000000
  0.44000000  0.40000000  0.00000000
  0.44000000  0.44000000  0.00000000
  0.44000000  0.48000000  0.00000000
  0.44000000  0.52000000  0.00000000
  0.44000000  0.56000000  0.00000000
  0.44000000  0.60000000  0.00000000
  0.44000000  0.64000000  0.00000000
  0.44000000  0.68000000  0.00000000
  0.44000000  0.72000000  0.00000000
  0.44000000  0.76000000  0.00000000
  0.44000000  0.80000000  0.00000000
  0.44000000  0.84000000  0.00000000
  0.44000000  0.88000000  0.00000000
  0.44000000  0.92000000  0.00000000
  0.44000000  0.96000000  0.00000000
  0.48000000  0.00000000  0.00000000
  0.48000000  0.04000000  0.00000000
  0.48000000  0.08000000  0.00000000
  0.48000000  0.12000000  0.00000000
  0.48000000  0.16000000  0.00000000
  0.48000000  0.20000000  0.00000000
  0.48000000  0.24000000  0.00000000
  0.48000000  0.28000000  0.00000000
  0.48000000  0.32000000  0.00000000
  0.48000000  0.36000000  0.00000000
  0.48000000  0.40000000  0.00000000
  0.48000000  0.44000000  0.00000000
  0.48000000  0.48000000  0.00000000
  0.48000000  0.52000000  0.00000000
  0.48000000  0.56000000  0.00000000
  0.48000000  0.60000000  0.00000000
  0.48000000  0.64000000  0.00000000
  0.48000000  0.68000000  0.00000000
  0.48000000  0.72000000  0.00000000
  0.48000000  0.76000000  0.00000000
  0.48000000  0.80000000  0.00000000
  0.48000000  0.84000000  0.00000000
  0.48000000  0.88000000  0.00000000
  0.48000000  0.92000000  0.00000000
  0.48000000  0.96000000  0.00000000
  0.52000000  0.00000000  0.00000000
  0.52000000  0.04000000  0.00000000
  0.52000000  0.08000000  0.00000000
  0.52000000  0.12000000  0.00000000
  0.52000000  0.16000000  0.00000000
  0.52000000  0.20000000  0.00000000
  0.52000000  0.24000000  0.00000000
  0.52000000  0.28000000  0.00000000
  0.52000000  0.32000000  0.00000000
  0.52000000  0.36000000  0.00000000
  0.52000000  0.40000000  0.00000000
  0.52000000  0.44000000  0.00000000
  0.52000000  0.48000000  0.00000000
  0.52000000  0.52000000  0.00000000
  0.52000000  0.56000000  0.00000000
  0.52000000  0.60000000  0.00000000
  0.52000000  0.64000000  0.00000000
  0.52000000  0.68000000  0.00000000
  0.52000000  0.72000000  0.00000000
  0.52000000  0.76000000  0.00000000
  0.52000000  0.80000000  0.00000000
  0.52000000  0.84000000  0.00000000
  0.52000000  0.88000000  0.00000000
  0.52000000  0.92000000  0.00000000
  0.52000000  0.96000000  0.00000000
  0.56000000  0.00000000  0.00000000
  0.56000000  0.04000000  0.00000000
  0.56000000  0.08000000  0.00000000
  0.56000000  0.12000000  0.00000000
  0.56000000  0.16000000  0.00000000
  0.56000000  0.20000000  0.00000000
  0.56000000  0.24000000  0.00000000
  0.56000000  0.28000000  0.00000000
  0.56000000  0.32000000  0.00000000
  0.56000000  0.36000000  0.00000000
  0.56000000  0.40000000  0.00000000
  0.56000000  0.44000000  0.00000000
  0.56000000  0.48000000  0.00000000
  0.56000000  0.52000000  0.00000000
  0.56000000  0.56000000  0.00000000
  0.56000000  0.60000000  0.00000000
  0.56000000  0.64000000  0.00000000
  0.56000000  0.68000000  0.00000000
  0.56000000  0.72000000  0.00000000
  0.56000000  0.76000000  0.00000000
  0.56000000  0.80000000  0.00000000
  0.56000000  0.84000000  0.00000000
  0.56000000  0.88000000  0.00000000
  0.56000000  0.92000000  0.00000000
  0.56000000  0.96000000  0.00000000
  0.60000000  0.00000000  0.00000000
  0.60000000  0.04000000  0.00000000
  0.60000000  0.08000000  0.00000000
  0.60000000  0.12000000  0.00000000
  0.60000000  0.16000000  0.00000000
  0.60000000  0.20000000  0.00000000
  0.60000000  0.24000000  0.00000000
  0.60000000  0.28000000  0.00000000
  0.60000000  0.32000000  0.00000000
  0.60000000  0.36000000  0.00000000
  0.60000000  0.40000000  0.00000000
  0.60000000  0.44000000  0.00000000
  0.60000000  0.48000000  0.00000000
  0.60000000  0.52000000  0.00000000
  0.60000000  0.56000000  0.00000000
  0.60000000  0.60000000  0.00000000
  0.60000000  0.64000000  0.00000000
  0.60000000  0.68000000  0.00000000
  0.60000000  0.72000000  0.00000000
  0.60000000  0.76000000  0.00000000
  0.60000000  0.80000000  0.00000000
  0.60000000  0.84000000  0.00000000
  0.60000000  0.88000000  0.00000000
  0.60000000  0.92000000  0.00000000
  0.60000000  0.96000000  0.00000000
  0.64000000  0.00000000  0.00000000
  0.64000000  0.04000000  0.00000000
  0.64000000  0.08000000  0.00000000
  0.64000000  0.12000000  0.00000000
  0.64000000  0.16000000  0.00000000
  0.64000000  0.20000000  0.00000000
  0.64000000  0.24000000  0.00000000
  0.64000000  0.28000000  0.00000000
  0.64000000  0.32000000  0.00000000
  0.64000000  0.36000000  0.00000000
  0.64000000  0.40000000  0.00000000
  0.64000000  0.44000000  0.00000000
  0.64000000  0.48000000  0.00000000
  0.64000000  0.52000000  0.00000000
  0.64000000  0.56000000  0.00000000
  0.64000000  0.60000000  0.00000000
  0.64000000  0.64000000  0.00000000
  0.64000000  0.68000000  0.00000000
  0.64000000  0.72000000  0.00000000
  0.64000000  0.76000000  0.00000000
  0.64000000  0.80000000  0.00000000
  0.64000000  0.84000000  0.00000000
  0.64000000  0.88000000  0.00000000
  0.64000000  0.92000000  0.00000000
  0.64000000  0.96000000  0.00000000
  0.68000000  0.00000000  0.00000000
  0.68000000  0.04000000  0.00000000
  0.68000000  0.08000000  0.00000000
  0.68000000  0.12000000  0.00000000
  0.68000000  0.16000000  0.00000000
  0.68000000  0.20000000  0.00000000
  0.68000000  0.24000000  0.00000000
  0.68000000  0.28000000  0.00000000
  0.68000000  0.32000000  0.00000000
  0.68000000  0.36000000  0.00000000
  0.68000000  0.40000000  0.00000000
  0.68000000  0.44000000  0.00000000
  0.68000000  0.48000000  0.00000000
  0.68000000  0.52000000  0.00000000
  0.68000000  0.56000000  0.00000000
  0.68000000  0.60000000  0.00000000
  0.68000000  0.64000000  0.00000000
  0.68000000  0.68000000  0.00000000
  0.68000000  0.72000000  0.00000000
  0.68000000  0.76000000  0.00000000
  0.68000000  0.80000000  0.00000000
  0.68000000  0.84000000  0.00000000
  0.68000000  0.88000000  0.00000000
  0.68000000  0.92000000  0.00000000
  0.68000000  0.96000000  0.00000000
  0.72000000  0.00000000  0.00000000
  0.72000000  0.04000000  0.00000000
  0.72000000  0.08000000  0.00000000
  0.72000000  0.12000000  0.00000000
  0.72000000  0.16000000  0.00000000
  0.72000000  0.20000000  0.00000000
  0.72000000  0.24000000  0.00000000
  0.72000000  0.28000000  0.00000000
  0.72000000  0.32000000  0.00000000
  0.72000000  0.36000000  0.00000000
  0.72000000  0.40000000  0.00000000
  0.72000000  0.44000000  0.00000000
  0.72000000  0.48000000  0.00000000
  0.72000000  0.52000000  0.00000000
  0.72000000  0.56000000  0.00000000
  0.72000000  0.60000000  0.00000000
  0.72000000  0.64000000  0.00000000
  0.72000000  0.68000000  0.00000000
  0.72000000  0.72000000  0.00000000
  0.72000000  0.76000000  0.00000000
  0.72000000  0.80000000  0.00000000
  0.72000000  0.84000000  0.00000000
  0.72000000  0.88000000  0.00000000
  0.72000000  0.92000000  0.00000000
  0.72000000  0.96000000  0.00000000
  0.76000000  0.00000000  0.00000000
  0.76000000  0.04000000  0.00000000
  0.76000000  0.08000000  0.00000000
  0.76000000  0.12000000  0.00000000
  0.76000000  0.16000000  0.00000000
  0.76000000  0.20000000  0.00000000
  0.76000000  0.24000000  0.00000000
  0.76000000  0.28000000  0.00000000
  0.76000000  0.32000000  0.00000000
  0.76000000  0.36000000  0.00000000
  0.76000000  0.40000000  0.00000000
  0.76000000  0.44000000  0.00000000
  0.76000000  0.48000000  0.00000000
  0.76000000  0.52000000  0.00000000
  0.76000000  0.56000000  0.00000000
  0.76000000  0.60000000  0.00000000
  0.76000000  0.64000000  0.00000000
  0.76000000  0.68000000  0.00000000
  0.76000000  0.72000000  0.00000000
  0.76000000  0.76000000  0.00000000
  0.76000000  0.80000000  0.00000000
  0.76000000  0.84000000  0.00000000
  0.76000000  0.88000000  0.00000000
  0.76000000  0.92000000  0.00000000
  0.76000000  0.96000000  0.00000000
  0.80000000  0.00000000  0.00000000
  0.80000000  0.04000000  0.00000000
  0.80000000  0.08000000  0.00000000
  0.80000000  0.12000000  0.00000000
  0.80000000  0.16000000  0.00000000
  0.80000000  0.20000000  0.00000000
  0.80000000  0.24000000  0.00000000
  0.80000000  0.28000000  0.00000000
  0.80000000  0.32000000  0.00000000
  0.80000000  0.36000000  0.00000000
  0.80000000  0.40000000  0.00000000
  0.80000000  0.44000000  0.00000000
  0.80000000  0.48000000  0.00000000
  0.80000000  0.52000000  0.00000000
  0.80000000  0.56000000  0.00000000
  0.80000000  0.60000000  0.00000000
  0.80000000  0.64000000  0.00000000
  0.80000000  0.68000000  0.00000000
  0.80000000  0.72000000  0.00000000
  0.80000000  0.76000000  0.00000000
  0.80000000  0.80000000  0.00000000
  0.80000000  0.84000000  0.00000000
  0.80000000  0.88000000  0.00000000
  0.80000000  0.92000000  0.00000000
  0.80000000  0.96000000  0.00000000
  0.84000000  0.00000000  0.00000000
  0.84000000  0.04000000  0.00000000
  0.84000000  0.08000000  0.00000000
  0.84000000  0.12000000  0.00000000
  0.84000000  0.16000000  0.00000000
  0.84000000  0.20000000  0.00000000
  0.84000000  0.24000000  0.00000000
  0.84000000  0.28000000  0.00000000
  0.84000000  0.32000000  0.00000000
  0.84000000  0.36000000  0.00000000
  0.84000000  0.40000000  0.00000000
  0.84000000  0.44000000  0.00000000
  0.84000000  0.48000000  0.00000000
  0.84000000  0.52000000  0.00000000
  0.84000000  0.56000000  0.00000000
  0.84000000  0.60000000  0.00000000
  0.84000000  0.64000000  0.00000000
  0.84000000  0.68000000  0.00000000
  0.84000000  0.72000000  0.00000000
  0.84000000  0.76000000  0.00000000
  0.84000000  0.80000000  0.00000000
  0.84000000  0.84000000  0.00000000
  0.84000000  0.88000000  0.00000000
  0.84000000  0.92000000  0.00000000
  0.84000000  0.96000000  0.00000000
  0.88000000  0.00000000  0.00000000
  0.88000000  0.04000000  0.00000000
  0.88000000  0.08000000  0.00000000
  0.88000000  0.12000000  0.00000000
  0.88000000  0.16000000  0.00000000
  0.88000000  0.20000000  0.00000000
  0.88000000  0.24000000  0.00000000
  0.88000000  0.28000000  0.00000000
  0.88000000  0.32000000  0.00000000
  0.88000000  0.36000000  0.00000000
  0.88000000  0.40000000  0.00000000
  0.88000000  0.44000000  0.00000000
  0.88000000  0.48000000  0.00000000
  0.88000000  0.52000000  0.00000000
  0.88000000  0.56000000  0.00000000
  0.88000000  0.60000000  0.00000000
  0.88000000  0.64000000  0.00000000
  0.88000000  0.68000000  0.00000000
  0.88000000  0.72000000  0.00000000
  0.88000000  0.76000000  0.00000000
  0.88000000  0.80000000  0.00000000
  0.88000000  0.84000000  0.00000000
  0.88000000  0.88000000  0.00000000
  0.88000000  0.92000000  0.00000000
  0.88000000  0.96000000  0.00000000
  0.92000000  0.00000000  0.00000000
  0.92000000  0.04000000  0.00000000
  0.92000000  0.08000000  0.00000000
  0.92000000  0.12000000  0.00000000
  0.92000000  0.16000000  0.00000000
  0.92000000  0.20000000  0.00000000
  0.92000000  0.24000000  0.00000000
  0.92000000  0.28000000  0.00000000
  0.92000000  0.32000000  0.00000000
  0.92000000  0.36000000  0.00000000
  0.92000000  0.40000000  0.00000000
  0.92000000  0.44000000  0.00000000
  0.92000000  0.48000000  0.00000000
  0.92000000  0.52000000  0.00000000
  0.92000000  0.56000000  0.00000000
  0.92000000  0.60000000  0.00000000
  0.92000000  0.64000000  0.00000000
  0.92000000  0.68000000  0.00000000
  0.92000000  0.72000000  0.00000000
  0.92000000  0.76000000  0.00000000
  0.92000000  0.80000000  0.00000000
  0.92000000  0.84000000  0.00000000
  0.92000000  0.88000000  0.00000000
  0.92000000  0.92000000  0.00000000
  0.92000000  0.96000000  0.00000000
  0.96000000  0.00000000  0.00000000
  0.96000000  0.04000000  0.00000000
  0.96000000  0.08000000  0.00000000
  0.96000000  0.12000000  0.00000000
  0.96000000  0.16000000  0.00000000
  0.96000000  0.20000000  0.00000000
  0.96000000  0.24000000  0.00000000
  0.96000000  0.28000000  0.00000000
  0.96000000  0.32000000  0.00000000
  0.96000000  0.36000000  0.00000000
  0.96000000  0.40000000  0.00000000
  0.96000000  0.44000000  0.00000000
  0.96000000  0.48000000  0.00000000
  0.96000000  0.52000000  0.00000000
  0.96000000  0.56000000  0.00000000
  0.96000000  0.60000000  0.00000000
  0.96000000  0.64000000  0.00000000
  0.96000000  0.68000000  0.00000000
  0.96000000  0.72000000  0.00000000
  0.96000000  0.76000000  0.00000000
  0.96000000  0.80000000  0.00000000
  0.96000000  0.84000000  0.00000000
  0.96000000  0.88000000  0.00000000
  0.96000000  0.92000000  0.00000000
  0.96000000  0.96000000  0.00000000
end kpoints
