num_bands = 60
num_wann = 12

!dis_num_iter = 200
!num_iter = 100

dis_num_iter = 0
num_iter     = 0

!dis_win_max = 14.5
!dis_win_min = 11.0
!dis_froz_max = 13.5
!dis_froz_min = 11.0

write_hr     = .true.

bands_plot   = .true.
bands_num_points = 100
wannier_plot = .true.

Begin Unit_Cell_Cart
Ang
   3.8409     0.0000     0.0000
   0.0000     3.8409     0.0000
   0.0000     0.0000     3.8409
End Unit_Cell_Cart

Begin Atoms_Cart
Ang
V       1.92045   1.92045   1.92045
O       0.00000   1.92045   1.92045
O       1.92045   0.00000   1.92045
O       1.92045   1.92045   0.00000
End Atoms_Cart

Begin Projections
 V:l=2,mr=3,2,5 ! dyz, dzx, dxy
 O:p
End Projections

Begin Kpoint_path
M  0.5  0.5  0.0    G  0.0  0.0  0.0
G  0.0  0.0  0.0    X  0.5  0.0  0.0
X  0.5  0.0  0.0    M  0.5  0.5  0.0
M  0.5  0.5  0.0    R  0.5  0.5  0.5
R  0.5  0.5  0.5    G  0.0  0.0  0.0
End Kpoint_path

mp_grid = 21 21 21

Begin Kpoints
  0.00000000  0.00000000  0.00000000
  0.00000000  0.00000000  0.04761905
  0.00000000  0.00000000  0.09523810
  0.00000000  0.00000000  0.14285714
  0.00000000  0.00000000  0.19047619
  0.00000000  0.00000000  0.23809524
  0.00000000  0.00000000  0.28571429
  0.00000000  0.00000000  0.33333333
  0.00000000  0.00000000  0.38095238
  0.00000000  0.00000000  0.42857143
  0.00000000  0.00000000  0.47619048
  0.00000000  0.00000000  0.52380952
  0.00000000  0.00000000  0.57142857
  0.00000000  0.00000000  0.61904762
  0.00000000  0.00000000  0.66666667
  0.00000000  0.00000000  0.71428571
  0.00000000  0.00000000  0.76190476
  0.00000000  0.00000000  0.80952381
  0.00000000  0.00000000  0.85714286
  0.00000000  0.00000000  0.90476190
  0.00000000  0.00000000  0.95238095
  0.00000000  0.04761905  0.00000000
  0.00000000  0.04761905  0.04761905
  0.00000000  0.04761905  0.09523810
  0.00000000  0.04761905  0.14285714
  0.00000000  0.04761905  0.19047619
  0.00000000  0.04761905  0.23809524
  0.00000000  0.04761905  0.28571429
  0.00000000  0.04761905  0.33333333
  0.00000000  0.04761905  0.38095238
  0.00000000  0.04761905  0.42857143
  0.00000000  0.04761905  0.47619048
  0.00000000  0.04761905  0.52380952
  0.00000000  0.04761905  0.57142857
  0.00000000  0.04761905  0.61904762
  0.00000000  0.04761905  0.66666667
  0.00000000  0.04761905  0.71428571
  0.00000000  0.04761905  0.76190476
  0.00000000  0.04761905  0.80952381
  0.00000000  0.04761905  0.85714286
  0.00000000  0.04761905  0.90476190
  0.00000000  0.04761905  0.95238095
  0.00000000  0.09523810  0.00000000
  0.00000000  0.09523810  0.04761905
  0.00000000  0.09523810  0.09523810
  0.00000000  0.09523810  0.14285714
  0.00000000  0.09523810  0.19047619
  0.00000000  0.09523810  0.23809524
  0.00000000  0.09523810  0.28571429
  0.00000000  0.09523810  0.33333333
  0.00000000  0.09523810  0.38095238
  0.00000000  0.09523810  0.42857143
  0.00000000  0.09523810  0.47619048
  0.00000000  0.09523810  0.52380952
  0.00000000  0.09523810  0.57142857
  0.00000000  0.09523810  0.61904762
  0.00000000  0.09523810  0.66666667
  0.00000000  0.09523810  0.71428571
  0.00000000  0.09523810  0.76190476
  0.00000000  0.09523810  0.80952381
  0.00000000  0.09523810  0.85714286
  0.00000000  0.09523810  0.90476190
  0.00000000  0.09523810  0.95238095
  0.00000000  0.14285714  0.00000000
  0.00000000  0.14285714  0.04761905
  0.00000000  0.14285714  0.09523810
  0.00000000  0.14285714  0.14285714
  0.00000000  0.14285714  0.19047619
  0.00000000  0.14285714  0.23809524
  0.00000000  0.14285714  0.28571429
  0.00000000  0.14285714  0.33333333
  0.00000000  0.14285714  0.38095238
  0.00000000  0.14285714  0.42857143
  0.00000000  0.14285714  0.47619048
  0.00000000  0.14285714  0.52380952
  0.00000000  0.14285714  0.57142857
  0.00000000  0.14285714  0.61904762
  0.00000000  0.14285714  0.66666667
  0.00000000  0.14285714  0.71428571
  0.00000000  0.14285714  0.76190476
  0.00000000  0.14285714  0.80952381
  0.00000000  0.14285714  0.85714286
  0.00000000  0.14285714  0.90476190
  0.00000000  0.14285714  0.95238095
  0.00000000  0.19047619  0.00000000
  0.00000000  0.19047619  0.04761905
  0.00000000  0.19047619  0.09523810
  0.00000000  0.19047619  0.14285714
  0.00000000  0.19047619  0.19047619
  0.00000000  0.19047619  0.23809524
  0.00000000  0.19047619  0.28571429
  0.00000000  0.19047619  0.33333333
  0.00000000  0.19047619  0.38095238
  0.00000000  0.19047619  0.42857143
  0.00000000  0.19047619  0.47619048
  0.00000000  0.19047619  0.52380952
  0.00000000  0.19047619  0.57142857
  0.00000000  0.19047619  0.61904762
  0.00000000  0.19047619  0.66666667
  0.00000000  0.19047619  0.71428571
  0.00000000  0.19047619  0.76190476
  0.00000000  0.19047619  0.80952381
  0.00000000  0.19047619  0.85714286
  0.00000000  0.19047619  0.90476190
  0.00000000  0.19047619  0.95238095
  0.00000000  0.23809524  0.00000000
  0.00000000  0.23809524  0.04761905
  0.00000000  0.23809524  0.09523810
  0.00000000  0.23809524  0.14285714
  0.00000000  0.23809524  0.19047619
  0.00000000  0.23809524  0.23809524
  0.00000000  0.23809524  0.28571429
  0.00000000  0.23809524  0.33333333
  0.00000000  0.23809524  0.38095238
  0.00000000  0.23809524  0.42857143
  0.00000000  0.23809524  0.47619048
  0.00000000  0.23809524  0.52380952
  0.00000000  0.23809524  0.57142857
  0.00000000  0.23809524  0.61904762
  0.00000000  0.23809524  0.66666667
  0.00000000  0.23809524  0.71428571
  0.00000000  0.23809524  0.76190476
  0.00000000  0.23809524  0.80952381
  0.00000000  0.23809524  0.85714286
  0.00000000  0.23809524  0.90476190
  0.00000000  0.23809524  0.95238095
  0.00000000  0.28571429  0.00000000
  0.00000000  0.28571429  0.04761905
  0.00000000  0.28571429  0.09523810
  0.00000000  0.28571429  0.14285714
  0.00000000  0.28571429  0.19047619
  0.00000000  0.28571429  0.23809524
  0.00000000  0.28571429  0.28571429
  0.00000000  0.28571429  0.33333333
  0.00000000  0.28571429  0.38095238
  0.00000000  0.28571429  0.42857143
  0.00000000  0.28571429  0.47619048
  0.00000000  0.28571429  0.52380952
  0.00000000  0.28571429  0.57142857
  0.00000000  0.28571429  0.61904762
  0.00000000  0.28571429  0.66666667
  0.00000000  0.28571429  0.71428571
  0.00000000  0.28571429  0.76190476
  0.00000000  0.28571429  0.80952381
  0.00000000  0.28571429  0.85714286
  0.00000000  0.28571429  0.90476190
  0.00000000  0.28571429  0.95238095
  0.00000000  0.33333333  0.00000000
  0.00000000  0.33333333  0.04761905
  0.00000000  0.33333333  0.09523810
  0.00000000  0.33333333  0.14285714
  0.00000000  0.33333333  0.19047619
  0.00000000  0.33333333  0.23809524
  0.00000000  0.33333333  0.28571429
  0.00000000  0.33333333  0.33333333
  0.00000000  0.33333333  0.38095238
  0.00000000  0.33333333  0.42857143
  0.00000000  0.33333333  0.47619048
  0.00000000  0.33333333  0.52380952
  0.00000000  0.33333333  0.57142857
  0.00000000  0.33333333  0.61904762
  0.00000000  0.33333333  0.66666667
  0.00000000  0.33333333  0.71428571
  0.00000000  0.33333333  0.76190476
  0.00000000  0.33333333  0.80952381
  0.00000000  0.33333333  0.85714286
  0.00000000  0.33333333  0.90476190
  0.00000000  0.33333333  0.95238095
  0.00000000  0.38095238  0.00000000
  0.00000000  0.38095238  0.04761905
  0.00000000  0.38095238  0.09523810
  0.00000000  0.38095238  0.14285714
  0.00000000  0.38095238  0.19047619
  0.00000000  0.38095238  0.23809524
  0.00000000  0.38095238  0.28571429
  0.00000000  0.38095238  0.33333333
  0.00000000  0.38095238  0.38095238
  0.00000000  0.38095238  0.42857143
  0.00000000  0.38095238  0.47619048
  0.00000000  0.38095238  0.52380952
  0.00000000  0.38095238  0.57142857
  0.00000000  0.38095238  0.61904762
  0.00000000  0.38095238  0.66666667
  0.00000000  0.38095238  0.71428571
  0.00000000  0.38095238  0.76190476
  0.00000000  0.38095238  0.80952381
  0.00000000  0.38095238  0.85714286
  0.00000000  0.38095238  0.90476190
  0.00000000  0.38095238  0.95238095
  0.00000000  0.42857143  0.00000000
  0.00000000  0.42857143  0.04761905
  0.00000000  0.42857143  0.09523810
  0.00000000  0.42857143  0.14285714
  0.00000000  0.42857143  0.19047619
  0.00000000  0.42857143  0.23809524
  0.00000000  0.42857143  0.28571429
  0.00000000  0.42857143  0.33333333
  0.00000000  0.42857143  0.38095238
  0.00000000  0.42857143  0.42857143
  0.00000000  0.42857143  0.47619048
  0.00000000  0.42857143  0.52380952
  0.00000000  0.42857143  0.57142857
  0.00000000  0.42857143  0.61904762
  0.00000000  0.42857143  0.66666667
  0.00000000  0.42857143  0.71428571
  0.00000000  0.42857143  0.76190476
  0.00000000  0.42857143  0.80952381
  0.00000000  0.42857143  0.85714286
  0.00000000  0.42857143  0.90476190
  0.00000000  0.42857143  0.95238095
  0.00000000  0.47619048  0.00000000
  0.00000000  0.47619048  0.04761905
  0.00000000  0.47619048  0.09523810
  0.00000000  0.47619048  0.14285714
  0.00000000  0.47619048  0.19047619
  0.00000000  0.47619048  0.23809524
  0.00000000  0.47619048  0.28571429
  0.00000000  0.47619048  0.33333333
  0.00000000  0.47619048  0.38095238
  0.00000000  0.47619048  0.42857143
  0.00000000  0.47619048  0.47619048
  0.00000000  0.47619048  0.52380952
  0.00000000  0.47619048  0.57142857
  0.00000000  0.47619048  0.61904762
  0.00000000  0.47619048  0.66666667
  0.00000000  0.47619048  0.71428571
  0.00000000  0.47619048  0.76190476
  0.00000000  0.47619048  0.80952381
  0.00000000  0.47619048  0.85714286
  0.00000000  0.47619048  0.90476190
  0.00000000  0.47619048  0.95238095
  0.00000000  0.52380952  0.00000000
  0.00000000  0.52380952  0.04761905
  0.00000000  0.52380952  0.09523810
  0.00000000  0.52380952  0.14285714
  0.00000000  0.52380952  0.19047619
  0.00000000  0.52380952  0.23809524
  0.00000000  0.52380952  0.28571429
  0.00000000  0.52380952  0.33333333
  0.00000000  0.52380952  0.38095238
  0.00000000  0.52380952  0.42857143
  0.00000000  0.52380952  0.47619048
  0.00000000  0.52380952  0.52380952
  0.00000000  0.52380952  0.57142857
  0.00000000  0.52380952  0.61904762
  0.00000000  0.52380952  0.66666667
  0.00000000  0.52380952  0.71428571
  0.00000000  0.52380952  0.76190476
  0.00000000  0.52380952  0.80952381
  0.00000000  0.52380952  0.85714286
  0.00000000  0.52380952  0.90476190
  0.00000000  0.52380952  0.95238095
  0.00000000  0.57142857  0.00000000
  0.00000000  0.57142857  0.04761905
  0.00000000  0.57142857  0.09523810
  0.00000000  0.57142857  0.14285714
  0.00000000  0.57142857  0.19047619
  0.00000000  0.57142857  0.23809524
  0.00000000  0.57142857  0.28571429
  0.00000000  0.57142857  0.33333333
  0.00000000  0.57142857  0.38095238
  0.00000000  0.57142857  0.42857143
  0.00000000  0.57142857  0.47619048
  0.00000000  0.57142857  0.52380952
  0.00000000  0.57142857  0.57142857
  0.00000000  0.57142857  0.61904762
  0.00000000  0.57142857  0.66666667
  0.00000000  0.57142857  0.71428571
  0.00000000  0.57142857  0.76190476
  0.00000000  0.57142857  0.80952381
  0.00000000  0.57142857  0.85714286
  0.00000000  0.57142857  0.90476190
  0.00000000  0.57142857  0.95238095
  0.00000000  0.61904762  0.00000000
  0.00000000  0.61904762  0.04761905
  0.00000000  0.61904762  0.09523810
  0.00000000  0.61904762  0.14285714
  0.00000000  0.61904762  0.19047619
  0.00000000  0.61904762  0.23809524
  0.00000000  0.61904762  0.28571429
  0.00000000  0.61904762  0.33333333
  0.00000000  0.61904762  0.38095238
  0.00000000  0.61904762  0.42857143
  0.00000000  0.61904762  0.47619048
  0.00000000  0.61904762  0.52380952
  0.00000000  0.61904762  0.57142857
  0.00000000  0.61904762  0.61904762
  0.00000000  0.61904762  0.66666667
  0.00000000  0.61904762  0.71428571
  0.00000000  0.61904762  0.76190476
  0.00000000  0.61904762  0.80952381
  0.00000000  0.61904762  0.85714286
  0.00000000  0.61904762  0.90476190
  0.00000000  0.61904762  0.95238095
  0.00000000  0.66666667  0.00000000
  0.00000000  0.66666667  0.04761905
  0.00000000  0.66666667  0.09523810
  0.00000000  0.66666667  0.14285714
  0.00000000  0.66666667  0.19047619
  0.00000000  0.66666667  0.23809524
  0.00000000  0.66666667  0.28571429
  0.00000000  0.66666667  0.33333333
  0.00000000  0.66666667  0.38095238
  0.00000000  0.66666667  0.42857143
  0.00000000  0.66666667  0.47619048
  0.00000000  0.66666667  0.52380952
  0.00000000  0.66666667  0.57142857
  0.00000000  0.66666667  0.61904762
  0.00000000  0.66666667  0.66666667
  0.00000000  0.66666667  0.71428571
  0.00000000  0.66666667  0.76190476
  0.00000000  0.66666667  0.80952381
  0.00000000  0.66666667  0.85714286
  0.00000000  0.66666667  0.90476190
  0.00000000  0.66666667  0.95238095
  0.00000000  0.71428571  0.00000000
  0.00000000  0.71428571  0.04761905
  0.00000000  0.71428571  0.09523810
  0.00000000  0.71428571  0.14285714
  0.00000000  0.71428571  0.19047619
  0.00000000  0.71428571  0.23809524
  0.00000000  0.71428571  0.28571429
  0.00000000  0.71428571  0.33333333
  0.00000000  0.71428571  0.38095238
  0.00000000  0.71428571  0.42857143
  0.00000000  0.71428571  0.47619048
  0.00000000  0.71428571  0.52380952
  0.00000000  0.71428571  0.57142857
  0.00000000  0.71428571  0.61904762
  0.00000000  0.71428571  0.66666667
  0.00000000  0.71428571  0.71428571
  0.00000000  0.71428571  0.76190476
  0.00000000  0.71428571  0.80952381
  0.00000000  0.71428571  0.85714286
  0.00000000  0.71428571  0.90476190
  0.00000000  0.71428571  0.95238095
  0.00000000  0.76190476  0.00000000
  0.00000000  0.76190476  0.04761905
  0.00000000  0.76190476  0.09523810
  0.00000000  0.76190476  0.14285714
  0.00000000  0.76190476  0.19047619
  0.00000000  0.76190476  0.23809524
  0.00000000  0.76190476  0.28571429
  0.00000000  0.76190476  0.33333333
  0.00000000  0.76190476  0.38095238
  0.00000000  0.76190476  0.42857143
  0.00000000  0.76190476  0.47619048
  0.00000000  0.76190476  0.52380952
  0.00000000  0.76190476  0.57142857
  0.00000000  0.76190476  0.61904762
  0.00000000  0.76190476  0.66666667
  0.00000000  0.76190476  0.71428571
  0.00000000  0.76190476  0.76190476
  0.00000000  0.76190476  0.80952381
  0.00000000  0.76190476  0.85714286
  0.00000000  0.76190476  0.90476190
  0.00000000  0.76190476  0.95238095
  0.00000000  0.80952381  0.00000000
  0.00000000  0.80952381  0.04761905
  0.00000000  0.80952381  0.09523810
  0.00000000  0.80952381  0.14285714
  0.00000000  0.80952381  0.19047619
  0.00000000  0.80952381  0.23809524
  0.00000000  0.80952381  0.28571429
  0.00000000  0.80952381  0.33333333
  0.00000000  0.80952381  0.38095238
  0.00000000  0.80952381  0.42857143
  0.00000000  0.80952381  0.47619048
  0.00000000  0.80952381  0.52380952
  0.00000000  0.80952381  0.57142857
  0.00000000  0.80952381  0.61904762
  0.00000000  0.80952381  0.66666667
  0.00000000  0.80952381  0.71428571
  0.00000000  0.80952381  0.76190476
  0.00000000  0.80952381  0.80952381
  0.00000000  0.80952381  0.85714286
  0.00000000  0.80952381  0.90476190
  0.00000000  0.80952381  0.95238095
  0.00000000  0.85714286  0.00000000
  0.00000000  0.85714286  0.04761905
  0.00000000  0.85714286  0.09523810
  0.00000000  0.85714286  0.14285714
  0.00000000  0.85714286  0.19047619
  0.00000000  0.85714286  0.23809524
  0.00000000  0.85714286  0.28571429
  0.00000000  0.85714286  0.33333333
  0.00000000  0.85714286  0.38095238
  0.00000000  0.85714286  0.42857143
  0.00000000  0.85714286  0.47619048
  0.00000000  0.85714286  0.52380952
  0.00000000  0.85714286  0.57142857
  0.00000000  0.85714286  0.61904762
  0.00000000  0.85714286  0.66666667
  0.00000000  0.85714286  0.71428571
  0.00000000  0.85714286  0.76190476
  0.00000000  0.85714286  0.80952381
  0.00000000  0.85714286  0.85714286
  0.00000000  0.85714286  0.90476190
  0.00000000  0.85714286  0.95238095
  0.00000000  0.90476190  0.00000000
  0.00000000  0.90476190  0.04761905
  0.00000000  0.90476190  0.09523810
  0.00000000  0.90476190  0.14285714
  0.00000000  0.90476190  0.19047619
  0.00000000  0.90476190  0.23809524
  0.00000000  0.90476190  0.28571429
  0.00000000  0.90476190  0.33333333
  0.00000000  0.90476190  0.38095238
  0.00000000  0.90476190  0.42857143
  0.00000000  0.90476190  0.47619048
  0.00000000  0.90476190  0.52380952
  0.00000000  0.90476190  0.57142857
  0.00000000  0.90476190  0.61904762
  0.00000000  0.90476190  0.66666667
  0.00000000  0.90476190  0.71428571
  0.00000000  0.90476190  0.76190476
  0.00000000  0.90476190  0.80952381
  0.00000000  0.90476190  0.85714286
  0.00000000  0.90476190  0.90476190
  0.00000000  0.90476190  0.95238095
  0.00000000  0.95238095  0.00000000
  0.00000000  0.95238095  0.04761905
  0.00000000  0.95238095  0.09523810
  0.00000000  0.95238095  0.14285714
  0.00000000  0.95238095  0.19047619
  0.00000000  0.95238095  0.23809524
  0.00000000  0.95238095  0.28571429
  0.00000000  0.95238095  0.33333333
  0.00000000  0.95238095  0.38095238
  0.00000000  0.95238095  0.42857143
  0.00000000  0.95238095  0.47619048
  0.00000000  0.95238095  0.52380952
  0.00000000  0.95238095  0.57142857
  0.00000000  0.95238095  0.61904762
  0.00000000  0.95238095  0.66666667
  0.00000000  0.95238095  0.71428571
  0.00000000  0.95238095  0.76190476
  0.00000000  0.95238095  0.80952381
  0.00000000  0.95238095  0.85714286
  0.00000000  0.95238095  0.90476190
  0.00000000  0.95238095  0.95238095
  0.04761905  0.00000000  0.00000000
  0.04761905  0.00000000  0.04761905
  0.04761905  0.00000000  0.09523810
  0.04761905  0.00000000  0.14285714
  0.04761905  0.00000000  0.19047619
  0.04761905  0.00000000  0.23809524
  0.04761905  0.00000000  0.28571429
  0.04761905  0.00000000  0.33333333
  0.04761905  0.00000000  0.38095238
  0.04761905  0.00000000  0.42857143
  0.04761905  0.00000000  0.47619048
  0.04761905  0.00000000  0.52380952
  0.04761905  0.00000000  0.57142857
  0.04761905  0.00000000  0.61904762
  0.04761905  0.00000000  0.66666667
  0.04761905  0.00000000  0.71428571
  0.04761905  0.00000000  0.76190476
  0.04761905  0.00000000  0.80952381
  0.04761905  0.00000000  0.85714286
  0.04761905  0.00000000  0.90476190
  0.04761905  0.00000000  0.95238095
  0.04761905  0.04761905  0.00000000
  0.04761905  0.04761905  0.04761905
  0.04761905  0.04761905  0.09523810
  0.04761905  0.04761905  0.14285714
  0.04761905  0.04761905  0.19047619
  0.04761905  0.04761905  0.23809524
  0.04761905  0.04761905  0.28571429
  0.04761905  0.04761905  0.33333333
  0.04761905  0.04761905  0.38095238
  0.04761905  0.04761905  0.42857143
  0.04761905  0.04761905  0.47619048
  0.04761905  0.04761905  0.52380952
  0.04761905  0.04761905  0.57142857
  0.04761905  0.04761905  0.61904762
  0.04761905  0.04761905  0.66666667
  0.04761905  0.04761905  0.71428571
  0.04761905  0.04761905  0.76190476
  0.04761905  0.04761905  0.80952381
  0.04761905  0.04761905  0.85714286
  0.04761905  0.04761905  0.90476190
  0.04761905  0.04761905  0.95238095
  0.04761905  0.09523810  0.00000000
  0.04761905  0.09523810  0.04761905
  0.04761905  0.09523810  0.09523810
  0.04761905  0.09523810  0.14285714
  0.04761905  0.09523810  0.19047619
  0.04761905  0.09523810  0.23809524
  0.04761905  0.09523810  0.28571429
  0.04761905  0.09523810  0.33333333
  0.04761905  0.09523810  0.38095238
  0.04761905  0.09523810  0.42857143
  0.04761905  0.09523810  0.47619048
  0.04761905  0.09523810  0.52380952
  0.04761905  0.09523810  0.57142857
  0.04761905  0.09523810  0.61904762
  0.04761905  0.09523810  0.66666667
  0.04761905  0.09523810  0.71428571
  0.04761905  0.09523810  0.76190476
  0.04761905  0.09523810  0.80952381
  0.04761905  0.09523810  0.85714286
  0.04761905  0.09523810  0.90476190
  0.04761905  0.09523810  0.95238095
  0.04761905  0.14285714  0.00000000
  0.04761905  0.14285714  0.04761905
  0.04761905  0.14285714  0.09523810
  0.04761905  0.14285714  0.14285714
  0.04761905  0.14285714  0.19047619
  0.04761905  0.14285714  0.23809524
  0.04761905  0.14285714  0.28571429
  0.04761905  0.14285714  0.33333333
  0.04761905  0.14285714  0.38095238
  0.04761905  0.14285714  0.42857143
  0.04761905  0.14285714  0.47619048
  0.04761905  0.14285714  0.52380952
  0.04761905  0.14285714  0.57142857
  0.04761905  0.14285714  0.61904762
  0.04761905  0.14285714  0.66666667
  0.04761905  0.14285714  0.71428571
  0.04761905  0.14285714  0.76190476
  0.04761905  0.14285714  0.80952381
  0.04761905  0.14285714  0.85714286
  0.04761905  0.14285714  0.90476190
  0.04761905  0.14285714  0.95238095
  0.04761905  0.19047619  0.00000000
  0.04761905  0.19047619  0.04761905
  0.04761905  0.19047619  0.09523810
  0.04761905  0.19047619  0.14285714
  0.04761905  0.19047619  0.19047619
  0.04761905  0.19047619  0.23809524
  0.04761905  0.19047619  0.28571429
  0.04761905  0.19047619  0.33333333
  0.04761905  0.19047619  0.38095238
  0.04761905  0.19047619  0.42857143
  0.04761905  0.19047619  0.47619048
  0.04761905  0.19047619  0.52380952
  0.04761905  0.19047619  0.57142857
  0.04761905  0.19047619  0.61904762
  0.04761905  0.19047619  0.66666667
  0.04761905  0.19047619  0.71428571
  0.04761905  0.19047619  0.76190476
  0.04761905  0.19047619  0.80952381
  0.04761905  0.19047619  0.85714286
  0.04761905  0.19047619  0.90476190
  0.04761905  0.19047619  0.95238095
  0.04761905  0.23809524  0.00000000
  0.04761905  0.23809524  0.04761905
  0.04761905  0.23809524  0.09523810
  0.04761905  0.23809524  0.14285714
  0.04761905  0.23809524  0.19047619
  0.04761905  0.23809524  0.23809524
  0.04761905  0.23809524  0.28571429
  0.04761905  0.23809524  0.33333333
  0.04761905  0.23809524  0.38095238
  0.04761905  0.23809524  0.42857143
  0.04761905  0.23809524  0.47619048
  0.04761905  0.23809524  0.52380952
  0.04761905  0.23809524  0.57142857
  0.04761905  0.23809524  0.61904762
  0.04761905  0.23809524  0.66666667
  0.04761905  0.23809524  0.71428571
  0.04761905  0.23809524  0.76190476
  0.04761905  0.23809524  0.80952381
  0.04761905  0.23809524  0.85714286
  0.04761905  0.23809524  0.90476190
  0.04761905  0.23809524  0.95238095
  0.04761905  0.28571429  0.00000000
  0.04761905  0.28571429  0.04761905
  0.04761905  0.28571429  0.09523810
  0.04761905  0.28571429  0.14285714
  0.04761905  0.28571429  0.19047619
  0.04761905  0.28571429  0.23809524
  0.04761905  0.28571429  0.28571429
  0.04761905  0.28571429  0.33333333
  0.04761905  0.28571429  0.38095238
  0.04761905  0.28571429  0.42857143
  0.04761905  0.28571429  0.47619048
  0.04761905  0.28571429  0.52380952
  0.04761905  0.28571429  0.57142857
  0.04761905  0.28571429  0.61904762
  0.04761905  0.28571429  0.66666667
  0.04761905  0.28571429  0.71428571
  0.04761905  0.28571429  0.76190476
  0.04761905  0.28571429  0.80952381
  0.04761905  0.28571429  0.85714286
  0.04761905  0.28571429  0.90476190
  0.04761905  0.28571429  0.95238095
  0.04761905  0.33333333  0.00000000
  0.04761905  0.33333333  0.04761905
  0.04761905  0.33333333  0.09523810
  0.04761905  0.33333333  0.14285714
  0.04761905  0.33333333  0.19047619
  0.04761905  0.33333333  0.23809524
  0.04761905  0.33333333  0.28571429
  0.04761905  0.33333333  0.33333333
  0.04761905  0.33333333  0.38095238
  0.04761905  0.33333333  0.42857143
  0.04761905  0.33333333  0.47619048
  0.04761905  0.33333333  0.52380952
  0.04761905  0.33333333  0.57142857
  0.04761905  0.33333333  0.61904762
  0.04761905  0.33333333  0.66666667
  0.04761905  0.33333333  0.71428571
  0.04761905  0.33333333  0.76190476
  0.04761905  0.33333333  0.80952381
  0.04761905  0.33333333  0.85714286
  0.04761905  0.33333333  0.90476190
  0.04761905  0.33333333  0.95238095
  0.04761905  0.38095238  0.00000000
  0.04761905  0.38095238  0.04761905
  0.04761905  0.38095238  0.09523810
  0.04761905  0.38095238  0.14285714
  0.04761905  0.38095238  0.19047619
  0.04761905  0.38095238  0.23809524
  0.04761905  0.38095238  0.28571429
  0.04761905  0.38095238  0.33333333
  0.04761905  0.38095238  0.38095238
  0.04761905  0.38095238  0.42857143
  0.04761905  0.38095238  0.47619048
  0.04761905  0.38095238  0.52380952
  0.04761905  0.38095238  0.57142857
  0.04761905  0.38095238  0.61904762
  0.04761905  0.38095238  0.66666667
  0.04761905  0.38095238  0.71428571
  0.04761905  0.38095238  0.76190476
  0.04761905  0.38095238  0.80952381
  0.04761905  0.38095238  0.85714286
  0.04761905  0.38095238  0.90476190
  0.04761905  0.38095238  0.95238095
  0.04761905  0.42857143  0.00000000
  0.04761905  0.42857143  0.04761905
  0.04761905  0.42857143  0.09523810
  0.04761905  0.42857143  0.14285714
  0.04761905  0.42857143  0.19047619
  0.04761905  0.42857143  0.23809524
  0.04761905  0.42857143  0.28571429
  0.04761905  0.42857143  0.33333333
  0.04761905  0.42857143  0.38095238
  0.04761905  0.42857143  0.42857143
  0.04761905  0.42857143  0.47619048
  0.04761905  0.42857143  0.52380952
  0.04761905  0.42857143  0.57142857
  0.04761905  0.42857143  0.61904762
  0.04761905  0.42857143  0.66666667
  0.04761905  0.42857143  0.71428571
  0.04761905  0.42857143  0.76190476
  0.04761905  0.42857143  0.80952381
  0.04761905  0.42857143  0.85714286
  0.04761905  0.42857143  0.90476190
  0.04761905  0.42857143  0.95238095
  0.04761905  0.47619048  0.00000000
  0.04761905  0.47619048  0.04761905
  0.04761905  0.47619048  0.09523810
  0.04761905  0.47619048  0.14285714
  0.04761905  0.47619048  0.19047619
  0.04761905  0.47619048  0.23809524
  0.04761905  0.47619048  0.28571429
  0.04761905  0.47619048  0.33333333
  0.04761905  0.47619048  0.38095238
  0.04761905  0.47619048  0.42857143
  0.04761905  0.47619048  0.47619048
  0.04761905  0.47619048  0.52380952
  0.04761905  0.47619048  0.57142857
  0.04761905  0.47619048  0.61904762
  0.04761905  0.47619048  0.66666667
  0.04761905  0.47619048  0.71428571
  0.04761905  0.47619048  0.76190476
  0.04761905  0.47619048  0.80952381
  0.04761905  0.47619048  0.85714286
  0.04761905  0.47619048  0.90476190
  0.04761905  0.47619048  0.95238095
  0.04761905  0.52380952  0.00000000
  0.04761905  0.52380952  0.04761905
  0.04761905  0.52380952  0.09523810
  0.04761905  0.52380952  0.14285714
  0.04761905  0.52380952  0.19047619
  0.04761905  0.52380952  0.23809524
  0.04761905  0.52380952  0.28571429
  0.04761905  0.52380952  0.33333333
  0.04761905  0.52380952  0.38095238
  0.04761905  0.52380952  0.42857143
  0.04761905  0.52380952  0.47619048
  0.04761905  0.52380952  0.52380952
  0.04761905  0.52380952  0.57142857
  0.04761905  0.52380952  0.61904762
  0.04761905  0.52380952  0.66666667
  0.04761905  0.52380952  0.71428571
  0.04761905  0.52380952  0.76190476
  0.04761905  0.52380952  0.80952381
  0.04761905  0.52380952  0.85714286
  0.04761905  0.52380952  0.90476190
  0.04761905  0.52380952  0.95238095
  0.04761905  0.57142857  0.00000000
  0.04761905  0.57142857  0.04761905
  0.04761905  0.57142857  0.09523810
  0.04761905  0.57142857  0.14285714
  0.04761905  0.57142857  0.19047619
  0.04761905  0.57142857  0.23809524
  0.04761905  0.57142857  0.28571429
  0.04761905  0.57142857  0.33333333
  0.04761905  0.57142857  0.38095238
  0.04761905  0.57142857  0.42857143
  0.04761905  0.57142857  0.47619048
  0.04761905  0.57142857  0.52380952
  0.04761905  0.57142857  0.57142857
  0.04761905  0.57142857  0.61904762
  0.04761905  0.57142857  0.66666667
  0.04761905  0.57142857  0.71428571
  0.04761905  0.57142857  0.76190476
  0.04761905  0.57142857  0.80952381
  0.04761905  0.57142857  0.85714286
  0.04761905  0.57142857  0.90476190
  0.04761905  0.57142857  0.95238095
  0.04761905  0.61904762  0.00000000
  0.04761905  0.61904762  0.04761905
  0.04761905  0.61904762  0.09523810
  0.04761905  0.61904762  0.14285714
  0.04761905  0.61904762  0.19047619
  0.04761905  0.61904762  0.23809524
  0.04761905  0.61904762  0.28571429
  0.04761905  0.61904762  0.33333333
  0.04761905  0.61904762  0.38095238
  0.04761905  0.61904762  0.42857143
  0.04761905  0.61904762  0.47619048
  0.04761905  0.61904762  0.52380952
  0.04761905  0.61904762  0.57142857
  0.04761905  0.61904762  0.61904762
  0.04761905  0.61904762  0.66666667
  0.04761905  0.61904762  0.71428571
  0.04761905  0.61904762  0.76190476
  0.04761905  0.61904762  0.80952381
  0.04761905  0.61904762  0.85714286
  0.04761905  0.61904762  0.90476190
  0.04761905  0.61904762  0.95238095
  0.04761905  0.66666667  0.00000000
  0.04761905  0.66666667  0.04761905
  0.04761905  0.66666667  0.09523810
  0.04761905  0.66666667  0.14285714
  0.04761905  0.66666667  0.19047619
  0.04761905  0.66666667  0.23809524
  0.04761905  0.66666667  0.28571429
  0.04761905  0.66666667  0.33333333
  0.04761905  0.66666667  0.38095238
  0.04761905  0.66666667  0.42857143
  0.04761905  0.66666667  0.47619048
  0.04761905  0.66666667  0.52380952
  0.04761905  0.66666667  0.57142857
  0.04761905  0.66666667  0.61904762
  0.04761905  0.66666667  0.66666667
  0.04761905  0.66666667  0.71428571
  0.04761905  0.66666667  0.76190476
  0.04761905  0.66666667  0.80952381
  0.04761905  0.66666667  0.85714286
  0.04761905  0.66666667  0.90476190
  0.04761905  0.66666667  0.95238095
  0.04761905  0.71428571  0.00000000
  0.04761905  0.71428571  0.04761905
  0.04761905  0.71428571  0.09523810
  0.04761905  0.71428571  0.14285714
  0.04761905  0.71428571  0.19047619
  0.04761905  0.71428571  0.23809524
  0.04761905  0.71428571  0.28571429
  0.04761905  0.71428571  0.33333333
  0.04761905  0.71428571  0.38095238
  0.04761905  0.71428571  0.42857143
  0.04761905  0.71428571  0.47619048
  0.04761905  0.71428571  0.52380952
  0.04761905  0.71428571  0.57142857
  0.04761905  0.71428571  0.61904762
  0.04761905  0.71428571  0.66666667
  0.04761905  0.71428571  0.71428571
  0.04761905  0.71428571  0.76190476
  0.04761905  0.71428571  0.80952381
  0.04761905  0.71428571  0.85714286
  0.04761905  0.71428571  0.90476190
  0.04761905  0.71428571  0.95238095
  0.04761905  0.76190476  0.00000000
  0.04761905  0.76190476  0.04761905
  0.04761905  0.76190476  0.09523810
  0.04761905  0.76190476  0.14285714
  0.04761905  0.76190476  0.19047619
  0.04761905  0.76190476  0.23809524
  0.04761905  0.76190476  0.28571429
  0.04761905  0.76190476  0.33333333