num_bands         =   32
num_wann          =   2

fermi_energy = -0.1863

num_iter          =   0
dis_num_iter      =   0

dis_win_min       = -30
dis_win_max       =  12
dis_froz_min      = -3
dis_froz_max      = 2.6


begin projections
C: pz
end projections

write_hr         = .true.
bands_plot       = .true.
wannier_plot     = .true.

wannier_plot_supercell = 2

begin kpoint_path
G   0.00000     0.00000     0.00000   K   0.33333     0.33333     0.00000
K   0.33333     0.33333     0.00000   M   0.50000     0.00000     0.00000
M   0.50000     0.00000     0.00000   G   0.00000     0.00000     0.00000
end kpoint_path

begin unit_cell_cart
bohr
 4.6014827822     0.0000000000          0.0000000000
-2.3007413911     3.9850009844618968    0.0000000000
 0.0000000000     0.0000000000          18.4059311288
end unit_cell_cart

begin atoms_frac
C 0.6666666666666666 0.3333333333333333 0.00000000000000000
C 0.3333333333333333 0.6666666666666666 0.00000000000000000
end atoms_frac

mp_grid           = 19 19 1

begin kpoints
  0.00000000  0.00000000  0.00000000
  0.00000000  0.05263158  0.00000000
  0.00000000  0.10526316  0.00000000
  0.00000000  0.15789474  0.00000000
  0.00000000  0.21052632  0.00000000
  0.00000000  0.26315789  0.00000000
  0.00000000  0.31578947  0.00000000
  0.00000000  0.36842105  0.00000000
  0.00000000  0.42105263  0.00000000
  0.00000000  0.47368421  0.00000000
  0.00000000  0.52631579  0.00000000
  0.00000000  0.57894737  0.00000000
  0.00000000  0.63157895  0.00000000
  0.00000000  0.68421053  0.00000000
  0.00000000  0.73684211  0.00000000
  0.00000000  0.78947368  0.00000000
  0.00000000  0.84210526  0.00000000
  0.00000000  0.89473684  0.00000000
  0.00000000  0.94736842  0.00000000
  0.05263158  0.00000000  0.00000000
  0.05263158  0.05263158  0.00000000
  0.05263158  0.10526316  0.00000000
  0.05263158  0.15789474  0.00000000
  0.05263158  0.21052632  0.00000000
  0.05263158  0.26315789  0.00000000
  0.05263158  0.31578947  0.00000000
  0.05263158  0.36842105  0.00000000
  0.05263158  0.42105263  0.00000000
  0.05263158  0.47368421  0.00000000
  0.05263158  0.52631579  0.00000000
  0.05263158  0.57894737  0.00000000
  0.05263158  0.63157895  0.00000000
  0.05263158  0.68421053  0.00000000
  0.05263158  0.73684211  0.00000000
  0.05263158  0.78947368  0.00000000
  0.05263158  0.84210526  0.00000000
  0.05263158  0.89473684  0.00000000
  0.05263158  0.94736842  0.00000000
  0.10526316  0.00000000  0.00000000
  0.10526316  0.05263158  0.00000000
  0.10526316  0.10526316  0.00000000
  0.10526316  0.15789474  0.00000000
  0.10526316  0.21052632  0.00000000
  0.10526316  0.26315789  0.00000000
  0.10526316  0.31578947  0.00000000
  0.10526316  0.36842105  0.00000000
  0.10526316  0.42105263  0.00000000
  0.10526316  0.47368421  0.00000000
  0.10526316  0.52631579  0.00000000
  0.10526316  0.57894737  0.00000000
  0.10526316  0.63157895  0.00000000
  0.10526316  0.68421053  0.00000000
  0.10526316  0.73684211  0.00000000
  0.10526316  0.78947368  0.00000000
  0.10526316  0.84210526  0.00000000
  0.10526316  0.89473684  0.00000000
  0.10526316  0.94736842  0.00000000
  0.15789474  0.00000000  0.00000000
  0.15789474  0.05263158  0.00000000
  0.15789474  0.10526316  0.00000000
  0.15789474  0.15789474  0.00000000
  0.15789474  0.21052632  0.00000000
  0.15789474  0.26315789  0.00000000
  0.15789474  0.31578947  0.00000000
  0.15789474  0.36842105  0.00000000
  0.15789474  0.42105263  0.00000000
  0.15789474  0.47368421  0.00000000
  0.15789474  0.52631579  0.00000000
  0.15789474  0.57894737  0.00000000
  0.15789474  0.63157895  0.00000000
  0.15789474  0.68421053  0.00000000
  0.15789474  0.73684211  0.00000000
  0.15789474  0.78947368  0.00000000
  0.15789474  0.84210526  0.00000000
  0.15789474  0.89473684  0.00000000
  0.15789474  0.94736842  0.00000000
  0.21052632  0.00000000  0.00000000
  0.21052632  0.05263158  0.00000000
  0.21052632  0.10526316  0.00000000
  0.21052632  0.15789474  0.00000000
  0.21052632  0.21052632  0.00000000
  0.21052632  0.26315789  0.00000000
  0.21052632  0.31578947  0.00000000
  0.21052632  0.36842105  0.00000000
  0.21052632  0.42105263  0.00000000
  0.21052632  0.47368421  0.00000000
  0.21052632  0.52631579  0.00000000
  0.21052632  0.57894737  0.00000000
  0.21052632  0.63157895  0.00000000
  0.21052632  0.68421053  0.00000000
  0.21052632  0.73684211  0.00000000
  0.21052632  0.78947368  0.00000000
  0.21052632  0.84210526  0.00000000
  0.21052632  0.89473684  0.00000000
  0.21052632  0.94736842  0.00000000
  0.26315789  0.00000000  0.00000000
  0.26315789  0.05263158  0.00000000
  0.26315789  0.10526316  0.00000000
  0.26315789  0.15789474  0.00000000
  0.26315789  0.21052632  0.00000000
  0.26315789  0.26315789  0.00000000
  0.26315789  0.31578947  0.00000000
  0.26315789  0.36842105  0.00000000
  0.26315789  0.42105263  0.00000000
  0.26315789  0.47368421  0.00000000
  0.26315789  0.52631579  0.00000000
  0.26315789  0.57894737  0.00000000
  0.26315789  0.63157895  0.00000000
  0.26315789  0.68421053  0.00000000
  0.26315789  0.73684211  0.00000000
  0.26315789  0.78947368  0.00000000
  0.26315789  0.84210526  0.00000000
  0.26315789  0.89473684  0.00000000
  0.26315789  0.94736842  0.00000000
  0.31578947  0.00000000  0.00000000
  0.31578947  0.05263158  0.00000000
  0.31578947  0.10526316  0.00000000
  0.31578947  0.15789474  0.00000000
  0.31578947  0.21052632  0.00000000
  0.31578947  0.26315789  0.00000000
  0.31578947  0.31578947  0.00000000
  0.31578947  0.36842105  0.00000000
  0.31578947  0.42105263  0.00000000
  0.31578947  0.47368421  0.00000000
  0.31578947  0.52631579  0.00000000
  0.31578947  0.57894737  0.00000000
  0.31578947  0.63157895  0.00000000
  0.31578947  0.68421053  0.00000000
  0.31578947  0.73684211  0.00000000
  0.31578947  0.78947368  0.00000000
  0.31578947  0.84210526  0.00000000
  0.31578947  0.89473684  0.00000000
  0.31578947  0.94736842  0.00000000
  0.36842105  0.00000000  0.00000000
  0.36842105  0.05263158  0.00000000
  0.36842105  0.10526316  0.00000000
  0.36842105  0.15789474  0.00000000
  0.36842105  0.21052632  0.00000000
  0.36842105  0.26315789  0.00000000
  0.36842105  0.31578947  0.00000000
  0.36842105  0.36842105  0.00000000
  0.36842105  0.42105263  0.00000000
  0.36842105  0.47368421  0.00000000
  0.36842105  0.52631579  0.00000000
  0.36842105  0.57894737  0.00000000
  0.36842105  0.63157895  0.00000000
  0.36842105  0.68421053  0.00000000
  0.36842105  0.73684211  0.00000000
  0.36842105  0.78947368  0.00000000
  0.36842105  0.84210526  0.00000000
  0.36842105  0.89473684  0.00000000
  0.36842105  0.94736842  0.00000000
  0.42105263  0.00000000  0.00000000
  0.42105263  0.05263158  0.00000000
  0.42105263  0.10526316  0.00000000
  0.42105263  0.15789474  0.00000000
  0.42105263  0.21052632  0.00000000
  0.42105263  0.26315789  0.00000000
  0.42105263  0.31578947  0.00000000
  0.42105263  0.36842105  0.00000000
  0.42105263  0.42105263  0.00000000
  0.42105263  0.47368421  0.00000000
  0.42105263  0.52631579  0.00000000
  0.42105263  0.57894737  0.00000000
  0.42105263  0.63157895  0.00000000
  0.42105263  0.68421053  0.00000000
  0.42105263  0.73684211  0.00000000
  0.42105263  0.78947368  0.00000000
  0.42105263  0.84210526  0.00000000
  0.42105263  0.89473684  0.00000000
  0.42105263  0.94736842  0.00000000
  0.47368421  0.00000000  0.00000000
  0.47368421  0.05263158  0.00000000
  0.47368421  0.10526316  0.00000000
  0.47368421  0.15789474  0.00000000
  0.47368421  0.21052632  0.00000000
  0.47368421  0.26315789  0.00000000
  0.47368421  0.31578947  0.00000000
  0.47368421  0.36842105  0.00000000
  0.47368421  0.42105263  0.00000000
  0.47368421  0.47368421  0.00000000
  0.47368421  0.52631579  0.00000000
  0.47368421  0.57894737  0.00000000
  0.47368421  0.63157895  0.00000000
  0.47368421  0.68421053  0.00000000
  0.47368421  0.73684211  0.00000000
  0.47368421  0.78947368  0.00000000
  0.47368421  0.84210526  0.00000000
  0.47368421  0.89473684  0.00000000
  0.47368421  0.94736842  0.00000000
  0.52631579  0.00000000  0.00000000
  0.52631579  0.05263158  0.00000000
  0.52631579  0.10526316  0.00000000
  0.52631579  0.15789474  0.00000000
  0.52631579  0.21052632  0.00000000
  0.52631579  0.26315789  0.00000000
  0.52631579  0.31578947  0.00000000
  0.52631579  0.36842105  0.00000000
  0.52631579  0.42105263  0.00000000
  0.52631579  0.47368421  0.00000000
  0.52631579  0.52631579  0.00000000
  0.52631579  0.57894737  0.00000000
  0.52631579  0.63157895  0.00000000
  0.52631579  0.68421053  0.00000000
  0.52631579  0.73684211  0.00000000
  0.52631579  0.78947368  0.00000000
  0.52631579  0.84210526  0.00000000
  0.52631579  0.89473684  0.00000000
  0.52631579  0.94736842  0.00000000
  0.57894737  0.00000000  0.00000000
  0.57894737  0.05263158  0.00000000
  0.57894737  0.10526316  0.00000000
  0.57894737  0.15789474  0.00000000
  0.57894737  0.21052632  0.00000000
  0.57894737  0.26315789  0.00000000
  0.57894737  0.31578947  0.00000000
  0.57894737  0.36842105  0.00000000
  0.57894737  0.42105263  0.00000000
  0.57894737  0.47368421  0.00000000
  0.57894737  0.52631579  0.00000000
  0.57894737  0.57894737  0.00000000
  0.57894737  0.63157895  0.00000000
  0.57894737  0.68421053  0.00000000
  0.57894737  0.73684211  0.00000000
  0.57894737  0.78947368  0.00000000
  0.57894737  0.84210526  0.00000000
  0.57894737  0.89473684  0.00000000
  0.57894737  0.94736842  0.00000000
  0.63157895  0.00000000  0.00000000
  0.63157895  0.05263158  0.00000000
  0.63157895  0.10526316  0.00000000
  0.63157895  0.15789474  0.00000000
  0.63157895  0.21052632  0.00000000
  0.63157895  0.26315789  0.00000000
  0.63157895  0.31578947  0.00000000
  0.63157895  0.36842105  0.00000000
  0.63157895  0.42105263  0.00000000
  0.63157895  0.47368421  0.00000000
  0.63157895  0.52631579  0.00000000
  0.63157895  0.57894737  0.00000000
  0.63157895  0.63157895  0.00000000
  0.63157895  0.68421053  0.00000000
  0.63157895  0.73684211  0.00000000
  0.63157895  0.78947368  0.00000000
  0.63157895  0.84210526  0.00000000
  0.63157895  0.89473684  0.00000000
  0.63157895  0.94736842  0.00000000
  0.68421053  0.00000000  0.00000000
  0.68421053  0.05263158  0.00000000
  0.68421053  0.10526316  0.00000000
  0.68421053  0.15789474  0.00000000
  0.68421053  0.21052632  0.00000000
  0.68421053  0.26315789  0.00000000
  0.68421053  0.31578947  0.00000000
  0.68421053  0.36842105  0.00000000
  0.68421053  0.42105263  0.00000000
  0.68421053  0.47368421  0.00000000
  0.68421053  0.52631579  0.00000000
  0.68421053  0.57894737  0.00000000
  0.68421053  0.63157895  0.00000000
  0.68421053  0.68421053  0.00000000
  0.68421053  0.73684211  0.00000000
  0.68421053  0.78947368  0.00000000
  0.68421053  0.84210526  0.00000000
  0.68421053  0.89473684  0.00000000
  0.68421053  0.94736842  0.00000000
  0.73684211  0.00000000  0.00000000
  0.73684211  0.05263158  0.00000000
  0.73684211  0.10526316  0.00000000
  0.73684211  0.15789474  0.00000000
  0.73684211  0.21052632  0.00000000
  0.73684211  0.26315789  0.00000000
  0.73684211  0.31578947  0.00000000
  0.73684211  0.36842105  0.00000000
  0.73684211  0.42105263  0.00000000
  0.73684211  0.47368421  0.00000000
  0.73684211  0.52631579  0.00000000
  0.73684211  0.57894737  0.00000000
  0.73684211  0.63157895  0.00000000
  0.73684211  0.68421053  0.00000000
  0.73684211  0.73684211  0.00000000
  0.73684211  0.78947368  0.00000000
  0.73684211  0.84210526  0.00000000
  0.73684211  0.89473684  0.00000000
  0.73684211  0.94736842  0.00000000
  0.78947368  0.00000000  0.00000000
  0.78947368  0.05263158  0.00000000
  0.78947368  0.10526316  0.00000000
  0.78947368  0.15789474  0.00000000
  0.78947368  0.21052632  0.00000000
  0.78947368  0.26315789  0.00000000
  0.78947368  0.31578947  0.00000000
  0.78947368  0.36842105  0.00000000
  0.78947368  0.42105263  0.00000000
  0.78947368  0.47368421  0.00000000
  0.78947368  0.52631579  0.00000000
  0.78947368  0.57894737  0.00000000
  0.78947368  0.63157895  0.00000000
  0.78947368  0.68421053  0.00000000
  0.78947368  0.73684211  0.00000000
  0.78947368  0.78947368  0.00000000
  0.78947368  0.84210526  0.00000000
  0.78947368  0.89473684  0.00000000
  0.78947368  0.94736842  0.00000000
  0.84210526  0.00000000  0.00000000
  0.84210526  0.05263158  0.00000000
  0.84210526  0.10526316  0.00000000
  0.84210526  0.15789474  0.00000000
  0.84210526  0.21052632  0.00000000
  0.84210526  0.26315789  0.00000000
  0.84210526  0.31578947  0.00000000
  0.84210526  0.36842105  0.00000000
  0.84210526  0.42105263  0.00000000
  0.84210526  0.47368421  0.00000000
  0.84210526  0.52631579  0.00000000
  0.84210526  0.57894737  0.00000000
  0.84210526  0.63157895  0.00000000
  0.84210526  0.68421053  0.00000000
  0.84210526  0.73684211  0.00000000
  0.84210526  0.78947368  0.00000000
  0.84210526  0.84210526  0.00000000
  0.84210526  0.89473684  0.00000000
  0.84210526  0.94736842  0.00000000
  0.89473684  0.00000000  0.00000000
  0.89473684  0.05263158  0.00000000
  0.89473684  0.10526316  0.00000000
  0.89473684  0.15789474  0.00000000
  0.89473684  0.21052632  0.00000000
  0.89473684  0.26315789  0.00000000
  0.89473684  0.31578947  0.00000000
  0.89473684  0.36842105  0.00000000
  0.89473684  0.42105263  0.00000000
  0.89473684  0.47368421  0.00000000
  0.89473684  0.52631579  0.00000000
  0.89473684  0.57894737  0.00000000
  0.89473684  0.63157895  0.00000000
  0.89473684  0.68421053  0.00000000
  0.89473684  0.73684211  0.00000000
  0.89473684  0.78947368  0.00000000
  0.89473684  0.84210526  0.00000000
  0.89473684  0.89473684  0.00000000
  0.89473684  0.94736842  0.00000000
  0.94736842  0.00000000  0.00000000
  0.94736842  0.05263158  0.00000000
  0.94736842  0.10526316  0.00000000
  0.94736842  0.15789474  0.00000000
  0.94736842  0.21052632  0.00000000
  0.94736842  0.26315789  0.00000000
  0.94736842  0.31578947  0.00000000
  0.94736842  0.36842105  0.00000000
  0.94736842  0.42105263  0.00000000
  0.94736842  0.47368421  0.00000000
  0.94736842  0.52631579  0.00000000
  0.94736842  0.57894737  0.00000000
  0.94736842  0.63157895  0.00000000
  0.94736842  0.68421053  0.00000000
  0.94736842  0.73684211  0.00000000
  0.94736842  0.78947368  0.00000000
  0.94736842  0.84210526  0.00000000
  0.94736842  0.89473684  0.00000000
  0.94736842  0.94736842  0.00000000
end kpoints
