num_bands         = target
num_wann          =  18  ! set to NBANDS by VASP
exclude_bands     = 1-6 !, 13-target
spinors           = .true.

#use_bloch_phases = .true.
#site_symmetry     = .true.
#symmetrize_eps    = 1.0e-06

num_iter           = 0
dis_num_iter       = 0

!dis_win_min       = -0.5
!dis_win_max       = 10
!dis_froz_min      = 0.0
!dis_froz_max      = 8
!dis_num_iter      = 10000
!dis_conv_tol      = 1.0e-10

begin projections
Te:px;py;pz
end projections

bands_plot   = .true.
write_hr     = .true.
write_tb     = .true.
wannier_plot = .true.
bands_num_points = 200
bands_plot_format gnuplot


begin unit_cell_cart
Ang
     4.4580000     0.0000000     0.0000000
    -2.2290001     3.8607414     0.0000000
     0.0000000     0.0000000     5.9250000
end unit_cell_cart

begin atoms_frac
Te       0.2740000     0.0000000     0.3333333
Te       0.7260000     0.7260000     0.0000000
Te       0.0000000     0.2740000     0.6666666
end atoms_frac

begin kpoint_path
A 0.000000000000000  0.000000000000000  0.500000000000000  G 0.000000000000000  0.000000000000000  0.000000000000000
G 0.000000000000000  0.000000000000000  0.000000000000000  H 0.333333333333333  0.333333333333333  0.500000000000000
H 0.333333333333333  0.333333333333333  0.500000000000000  A 0.000000000000000  0.000000000000000  0.500000000000000
A 0.000000000000000  0.000000000000000  0.500000000000000  L 0.500000000000000  0.000000000000000  0.500000000000000
L 0.500000000000000  0.000000000000000  0.500000000000000  H 0.333333333333333  0.333333333333333  0.500000000000000
H 0.333333333333333  0.333333333333333  0.500000000000000  K 0.333333333333333  0.333333333333333  0.000000000000000
K 0.333333333333333  0.333333333333333  0.000000000000000  G 0.000000000000000  0.000000000000000  0.000000000000000
G 0.000000000000000  0.000000000000000  0.000000000000000  M 0.500000000000000  0.000000000000000  0.000000000000000
M 0.500000000000000  0.000000000000000  0.000000000000000  K 0.333333333333333  0.333333333333333  0.000000000000000
end kpoint_path


mp_grid = 16 16 12


begin kpoints
  0.00000000  0.00000000  0.00000000
  0.00000000  0.00000000  0.08333333
  0.00000000  0.00000000  0.16666667
  0.00000000  0.00000000  0.25000000
  0.00000000  0.00000000  0.33333333
  0.00000000  0.00000000  0.41666667
  0.00000000  0.00000000  0.50000000
  0.00000000  0.00000000  0.58333333
  0.00000000  0.00000000  0.66666667
  0.00000000  0.00000000  0.75000000
  0.00000000  0.00000000  0.83333333
  0.00000000  0.00000000  0.91666667
  0.00000000  0.06250000  0.00000000
  0.00000000  0.06250000  0.08333333
  0.00000000  0.06250000  0.16666667
  0.00000000  0.06250000  0.25000000
  0.00000000  0.06250000  0.33333333
  0.00000000  0.06250000  0.41666667
  0.00000000  0.06250000  0.50000000
  0.00000000  0.06250000  0.58333333
  0.00000000  0.06250000  0.66666667
  0.00000000  0.06250000  0.75000000
  0.00000000  0.06250000  0.83333333
  0.00000000  0.06250000  0.91666667
  0.00000000  0.12500000  0.00000000
  0.00000000  0.12500000  0.08333333
  0.00000000  0.12500000  0.16666667
  0.00000000  0.12500000  0.25000000
  0.00000000  0.12500000  0.33333333
  0.00000000  0.12500000  0.41666667
  0.00000000  0.12500000  0.50000000
  0.00000000  0.12500000  0.58333333
  0.00000000  0.12500000  0.66666667
  0.00000000  0.12500000  0.75000000
  0.00000000  0.12500000  0.83333333
  0.00000000  0.12500000  0.91666667
  0.00000000  0.18750000  0.00000000
  0.00000000  0.18750000  0.08333333
  0.00000000  0.18750000  0.16666667
  0.00000000  0.18750000  0.25000000
  0.00000000  0.18750000  0.33333333
  0.00000000  0.18750000  0.41666667
  0.00000000  0.18750000  0.50000000
  0.00000000  0.18750000  0.58333333
  0.00000000  0.18750000  0.66666667
  0.00000000  0.18750000  0.75000000
  0.00000000  0.18750000  0.83333333
  0.00000000  0.18750000  0.91666667
  0.00000000  0.25000000  0.00000000
  0.00000000  0.25000000  0.08333333
  0.00000000  0.25000000  0.16666667
  0.00000000  0.25000000  0.25000000
  0.00000000  0.25000000  0.33333333
  0.00000000  0.25000000  0.41666667
  0.00000000  0.25000000  0.50000000
  0.00000000  0.25000000  0.58333333
  0.00000000  0.25000000  0.66666667
  0.00000000  0.25000000  0.75000000
  0.00000000  0.25000000  0.83333333
  0.00000000  0.25000000  0.91666667
  0.00000000  0.31250000  0.00000000
  0.00000000  0.31250000  0.08333333
  0.00000000  0.31250000  0.16666667
  0.00000000  0.31250000  0.25000000
  0.00000000  0.31250000  0.33333333
  0.00000000  0.31250000  0.41666667
  0.00000000  0.31250000  0.50000000
  0.00000000  0.31250000  0.58333333
  0.00000000  0.31250000  0.66666667
  0.00000000  0.31250000  0.75000000
  0.00000000  0.31250000  0.83333333
  0.00000000  0.31250000  0.91666667
  0.00000000  0.37500000  0.00000000
  0.00000000  0.37500000  0.08333333
  0.00000000  0.37500000  0.16666667
  0.00000000  0.37500000  0.25000000
  0.00000000  0.37500000  0.33333333
  0.00000000  0.37500000  0.41666667
  0.00000000  0.37500000  0.50000000
  0.00000000  0.37500000  0.58333333
  0.00000000  0.37500000  0.66666667
  0.00000000  0.37500000  0.75000000
  0.00000000  0.37500000  0.83333333
  0.00000000  0.37500000  0.91666667
  0.00000000  0.43750000  0.00000000
  0.00000000  0.43750000  0.08333333
  0.00000000  0.43750000  0.16666667
  0.00000000  0.43750000  0.25000000
  0.00000000  0.43750000  0.33333333
  0.00000000  0.43750000  0.41666667
  0.00000000  0.43750000  0.50000000
  0.00000000  0.43750000  0.58333333
  0.00000000  0.43750000  0.66666667
  0.00000000  0.43750000  0.75000000
  0.00000000  0.43750000  0.83333333
  0.00000000  0.43750000  0.91666667
  0.00000000  0.50000000  0.00000000
  0.00000000  0.50000000  0.08333333
  0.00000000  0.50000000  0.16666667
  0.00000000  0.50000000  0.25000000
  0.00000000  0.50000000  0.33333333
  0.00000000  0.50000000  0.41666667
  0.00000000  0.50000000  0.50000000
  0.00000000  0.50000000  0.58333333
  0.00000000  0.50000000  0.66666667
  0.00000000  0.50000000  0.75000000
  0.00000000  0.50000000  0.83333333
  0.00000000  0.50000000  0.91666667
  0.00000000  0.56250000  0.00000000
  0.00000000  0.56250000  0.08333333
  0.00000000  0.56250000  0.16666667
  0.00000000  0.56250000  0.25000000
  0.00000000  0.56250000  0.33333333
  0.00000000  0.56250000  0.41666667
  0.00000000  0.56250000  0.50000000
  0.00000000  0.56250000  0.58333333
  0.00000000  0.56250000  0.66666667
  0.00000000  0.56250000  0.75000000
  0.00000000  0.56250000  0.83333333
  0.00000000  0.56250000  0.91666667
  0.00000000  0.62500000  0.00000000
  0.00000000  0.62500000  0.08333333
  0.00000000  0.62500000  0.16666667
  0.00000000  0.62500000  0.25000000
  0.00000000  0.62500000  0.33333333
  0.00000000  0.62500000  0.41666667
  0.00000000  0.62500000  0.50000000
  0.00000000  0.62500000  0.58333333
  0.00000000  0.62500000  0.66666667
  0.00000000  0.62500000  0.75000000
  0.00000000  0.62500000  0.83333333
  0.00000000  0.62500000  0.91666667
  0.00000000  0.68750000  0.00000000
  0.00000000  0.68750000  0.08333333
  0.00000000  0.68750000  0.16666667
  0.00000000  0.68750000  0.25000000
  0.00000000  0.68750000  0.33333333
  0.00000000  0.68750000  0.41666667
  0.00000000  0.68750000  0.50000000
  0.00000000  0.68750000  0.58333333
  0.00000000  0.68750000  0.66666667
  0.00000000  0.68750000  0.75000000
  0.00000000  0.68750000  0.83333333
  0.00000000  0.68750000  0.91666667
  0.00000000  0.75000000  0.00000000
  0.00000000  0.75000000  0.08333333
  0.00000000  0.75000000  0.16666667
  0.00000000  0.75000000  0.25000000
  0.00000000  0.75000000  0.33333333
  0.00000000  0.75000000  0.41666667
  0.00000000  0.75000000  0.50000000
  0.00000000  0.75000000  0.58333333
  0.00000000  0.75000000  0.66666667
  0.00000000  0.75000000  0.75000000
  0.00000000  0.75000000  0.83333333
  0.00000000  0.75000000  0.91666667
  0.00000000  0.81250000  0.00000000
  0.00000000  0.81250000  0.08333333
  0.00000000  0.81250000  0.16666667
  0.00000000  0.81250000  0.25000000
  0.00000000  0.81250000  0.33333333
  0.00000000  0.81250000  0.41666667
  0.00000000  0.81250000  0.50000000
  0.00000000  0.81250000  0.58333333
  0.00000000  0.81250000  0.66666667
  0.00000000  0.81250000  0.75000000
  0.00000000  0.81250000  0.83333333
  0.00000000  0.81250000  0.91666667
  0.00000000  0.87500000  0.00000000
  0.00000000  0.87500000  0.08333333
  0.00000000  0.87500000  0.16666667
  0.00000000  0.87500000  0.25000000
  0.00000000  0.87500000  0.33333333
  0.00000000  0.87500000  0.41666667
  0.00000000  0.87500000  0.50000000
  0.00000000  0.87500000  0.58333333
  0.00000000  0.87500000  0.66666667
  0.00000000  0.87500000  0.75000000
  0.00000000  0.87500000  0.83333333
  0.00000000  0.87500000  0.91666667
  0.00000000  0.93750000  0.00000000
  0.00000000  0.93750000  0.08333333
  0.00000000  0.93750000  0.16666667
  0.00000000  0.93750000  0.25000000
  0.00000000  0.93750000  0.33333333
  0.00000000  0.93750000  0.41666667
  0.00000000  0.93750000  0.50000000
  0.00000000  0.93750000  0.58333333
  0.00000000  0.93750000  0.66666667
  0.00000000  0.93750000  0.75000000
  0.00000000  0.93750000  0.83333333
  0.00000000  0.93750000  0.91666667
  0.06250000  0.00000000  0.00000000
  0.06250000  0.00000000  0.08333333
  0.06250000  0.00000000  0.16666667
  0.06250000  0.00000000  0.25000000
  0.06250000  0.00000000  0.33333333
  0.06250000  0.00000000  0.41666667
  0.06250000  0.00000000  0.50000000
  0.06250000  0.00000000  0.58333333
  0.06250000  0.00000000  0.66666667
  0.06250000  0.00000000  0.75000000
  0.06250000  0.00000000  0.83333333
  0.06250000  0.00000000  0.91666667
  0.06250000  0.06250000  0.00000000
  0.06250000  0.06250000  0.08333333
  0.06250000  0.06250000  0.16666667
  0.06250000  0.06250000  0.25000000
  0.06250000  0.06250000  0.33333333
  0.06250000  0.06250000  0.41666667
  0.06250000  0.06250000  0.50000000
  0.06250000  0.06250000  0.58333333
  0.06250000  0.06250000  0.66666667
  0.06250000  0.06250000  0.75000000
  0.06250000  0.06250000  0.83333333
  0.06250000  0.06250000  0.91666667
  0.06250000  0.12500000  0.00000000
  0.06250000  0.12500000  0.08333333
  0.06250000  0.12500000  0.16666667
  0.06250000  0.12500000  0.25000000
  0.06250000  0.12500000  0.33333333
  0.06250000  0.12500000  0.41666667
  0.06250000  0.12500000  0.50000000
  0.06250000  0.12500000  0.58333333
  0.06250000  0.12500000  0.66666667
  0.06250000  0.12500000  0.75000000
  0.06250000  0.12500000  0.83333333
  0.06250000  0.12500000  0.91666667
  0.06250000  0.18750000  0.00000000
  0.06250000  0.18750000  0.08333333
  0.06250000  0.18750000  0.16666667
  0.06250000  0.18750000  0.25000000
  0.06250000  0.18750000  0.33333333
  0.06250000  0.18750000  0.41666667
  0.06250000  0.18750000  0.50000000
  0.06250000  0.18750000  0.58333333
  0.06250000  0.18750000  0.66666667
  0.06250000  0.18750000  0.75000000
  0.06250000  0.18750000  0.83333333
  0.06250000  0.18750000  0.91666667
  0.06250000  0.25000000  0.00000000
  0.06250000  0.25000000  0.08333333
  0.06250000  0.25000000  0.16666667
  0.06250000  0.25000000  0.25000000
  0.06250000  0.25000000  0.33333333
  0.06250000  0.25000000  0.41666667
  0.06250000  0.25000000  0.50000000
  0.06250000  0.25000000  0.58333333
  0.06250000  0.25000000  0.66666667
  0.06250000  0.25000000  0.75000000
  0.06250000  0.25000000  0.83333333
  0.06250000  0.25000000  0.91666667
  0.06250000  0.31250000  0.00000000
  0.06250000  0.31250000  0.08333333
  0.06250000  0.31250000  0.16666667
  0.06250000  0.31250000  0.25000000
  0.06250000  0.31250000  0.33333333
  0.06250000  0.31250000  0.41666667
  0.06250000  0.31250000  0.50000000
  0.06250000  0.31250000  0.58333333
  0.06250000  0.31250000  0.66666667
  0.06250000  0.31250000  0.75000000
  0.06250000  0.31250000  0.83333333
  0.06250000  0.31250000  0.91666667
  0.06250000  0.37500000  0.00000000
  0.06250000  0.37500000  0.08333333
  0.06250000  0.37500000  0.16666667
  0.06250000  0.37500000  0.25000000
  0.06250000  0.37500000  0.33333333
  0.06250000  0.37500000  0.41666667
  0.06250000  0.37500000  0.50000000
  0.06250000  0.37500000  0.58333333
  0.06250000  0.37500000  0.66666667
  0.06250000  0.37500000  0.75000000
  0.06250000  0.37500000  0.83333333
  0.06250000  0.37500000  0.91666667
  0.06250000  0.43750000  0.00000000
  0.06250000  0.43750000  0.08333333
  0.06250000  0.43750000  0.16666667
  0.06250000  0.43750000  0.25000000
  0.06250000  0.43750000  0.33333333
  0.06250000  0.43750000  0.41666667
  0.06250000  0.43750000  0.50000000
  0.06250000  0.43750000  0.58333333
  0.06250000  0.43750000  0.66666667
  0.06250000  0.43750000  0.75000000
  0.06250000  0.43750000  0.83333333
  0.06250000  0.43750000  0.91666667
  0.06250000  0.50000000  0.00000000
  0.06250000  0.50000000  0.08333333
  0.06250000  0.50000000  0.16666667
  0.06250000  0.50000000  0.25000000
  0.06250000  0.50000000  0.33333333
  0.06250000  0.50000000  0.41666667
  0.06250000  0.50000000  0.50000000
  0.06250000  0.50000000  0.58333333
  0.06250000  0.50000000  0.66666667
  0.06250000  0.50000000  0.75000000
  0.06250000  0.50000000  0.83333333
  0.06250000  0.50000000  0.91666667
  0.06250000  0.56250000  0.00000000
  0.06250000  0.56250000  0.08333333
  0.06250000  0.56250000  0.16666667
  0.06250000  0.56250000  0.25000000
  0.06250000  0.56250000  0.33333333
  0.06250000  0.56250000  0.41666667
  0.06250000  0.56250000  0.50000000
  0.06250000  0.56250000  0.58333333
  0.06250000  0.56250000  0.66666667
  0.06250000  0.56250000  0.75000000
  0.06250000  0.56250000  0.83333333
  0.06250000  0.56250000  0.91666667
  0.06250000  0.62500000  0.00000000
  0.06250000  0.62500000  0.08333333
  0.06250000  0.62500000  0.16666667
  0.06250000  0.62500000  0.25000000
  0.06250000  0.62500000  0.33333333
  0.06250000  0.62500000  0.41666667
  0.06250000  0.62500000  0.50000000
  0.06250000  0.62500000  0.58333333
  0.06250000  0.62500000  0.66666667
  0.06250000  0.62500000  0.75000000
  0.06250000  0.62500000  0.83333333
  0.06250000  0.62500000  0.91666667
  0.06250000  0.68750000  0.00000000
  0.06250000  0.68750000  0.08333333
  0.06250000  0.68750000  0.16666667
  0.06250000  0.68750000  0.25000000
  0.06250000  0.68750000  0.33333333
  0.06250000  0.68750000  0.41666667
  0.06250000  0.68750000  0.50000000
  0.06250000  0.68750000  0.58333333
  0.06250000  0.68750000  0.66666667
  0.06250000  0.68750000  0.75000000
  0.06250000  0.68750000  0.83333333
  0.06250000  0.68750000  0.91666667
  0.06250000  0.75000000  0.00000000
  0.06250000  0.75000000  0.08333333
  0.06250000  0.75000000  0.16666667
  0.06250000  0.75000000  0.25000000
  0.06250000  0.75000000  0.33333333
  0.06250000  0.75000000  0.41666667
  0.06250000  0.75000000  0.50000000
  0.06250000  0.75000000  0.58333333
  0.06250000  0.75000000  0.66666667
  0.06250000  0.75000000  0.75000000
  0.06250000  0.75000000  0.83333333
  0.06250000  0.75000000  0.91666667
  0.06250000  0.81250000  0.00000000
  0.06250000  0.81250000  0.08333333
  0.06250000  0.81250000  0.16666667
  0.06250000  0.81250000  0.25000000
  0.06250000  0.81250000  0.33333333
  0.06250000  0.81250000  0.41666667
  0.06250000  0.81250000  0.50000000
  0.06250000  0.81250000  0.58333333
  0.06250000  0.81250000  0.66666667
  0.06250000  0.81250000  0.75000000
  0.06250000  0.81250000  0.83333333
  0.06250000  0.81250000  0.91666667
  0.06250000  0.87500000  0.00000000
  0.06250000  0.87500000  0.08333333
  0.06250000  0.87500000  0.16666667
  0.06250000  0.87500000  0.25000000
  0.06250000  0.87500000  0.33333333
  0.06250000  0.87500000  0.41666667
  0.06250000  0.87500000  0.50000000
  0.06250000  0.87500000  0.58333333
  0.06250000  0.87500000  0.66666667
  0.06250000  0.87500000  0.75000000
  0.06250000  0.87500000  0.83333333
  0.06250000  0.87500000  0.91666667
  0.06250000  0.93750000  0.00000000
  0.06250000  0.93750000  0.08333333
  0.06250000  0.93750000  0.16666667
  0.06250000  0.93750000  0.25000000
  0.06250000  0.93750000  0.33333333
  0.06250000  0.93750000  0.41666667
  0.06250000  0.93750000  0.50000000
  0.06250000  0.93750000  0.58333333
  0.06250000  0.93750000  0.66666667
  0.06250000  0.93750000  0.75000000
  0.06250000  0.93750000  0.83333333
  0.06250000  0.93750000  0.91666667
  0.12500000  0.00000000  0.00000000
  0.12500000  0.00000000  0.08333333
  0.12500000  0.00000000  0.16666667
  0.12500000  0.00000000  0.25000000
  0.12500000  0.00000000  0.33333333
  0.12500000  0.00000000  0.41666667
  0.12500000  0.00000000  0.50000000
  0.12500000  0.00000000  0.58333333
  0.12500000  0.00000000  0.66666667
  0.12500000  0.00000000  0.75000000
  0.12500000  0.00000000  0.83333333
  0.12500000  0.00000000  0.91666667
  0.12500000  0.06250000  0.00000000
  0.12500000  0.06250000  0.08333333
  0.12500000  0.06250000  0.16666667
  0.12500000  0.06250000  0.25000000
  0.12500000  0.06250000  0.33333333
  0.12500000  0.06250000  0.41666667
  0.12500000  0.06250000  0.50000000
  0.12500000  0.06250000  0.58333333
  0.12500000  0.06250000  0.66666667
  0.12500000  0.06250000  0.75000000
  0.12500000  0.06250000  0.83333333
  0.12500000  0.06250000  0.91666667
  0.12500000  0.12500000  0.00000000
  0.12500000  0.12500000  0.08333333
  0.12500000  0.12500000  0.16666667
  0.12500000  0.12500000  0.25000000
  0.12500000  0.12500000  0.33333333
  0.12500000  0.12500000  0.41666667
  0.12500000  0.12500000  0.50000000
  0.12500000  0.12500000  0.58333333
  0.12500000  0.12500000  0.66666667
  0.12500000  0.12500000  0.75000000
  0.12500000  0.12500000  0.83333333
  0.12500000  0.12500000  0.91666667
  0.12500000  0.18750000  0.00000000
  0.12500000  0.18750000  0.08333333
  0.12500000  0.18750000  0.16666667
  0.12500000  0.18750000  0.25000000
  0.12500000  0.18750000  0.33333333
  0.12500000  0.18750000  0.41666667
  0.12500000  0.18750000  0.50000000
  0.12500000  0.18750000  0.58333333
  0.12500000  0.18750000  0.66666667
  0.12500000  0.18750000  0.75000000
  0.12500000  0.18750000  0.83333333
  0.12500000  0.18750000  0.91666667
  0.12500000  0.25000000  0.00000000
  0.12500000  0.25000000  0.08333333
  0.12500000  0.25000000  0.16666667
  0.12500000  0.25000000  0.25000000
  0.12500000  0.25000000  0.33333333
  0.12500000  0.25000000  0.41666667
  0.12500000  0.25000000  0.50000000
  0.12500000  0.25000000  0.58333333
  0.12500000  0.25000000  0.66666667
  0.12500000  0.25000000  0.75000000
  0.12500000  0.25000000  0.83333333
  0.12500000  0.25000000  0.91666667
  0.12500000  0.31250000  0.00000000
  0.12500000  0.31250000  0.08333333
  0.12500000  0.31250000  0.16666667
  0.12500000  0.31250000  0.25000000
  0.12500000  0.31250000  0.33333333
  0.12500000  0.31250000  0.41666667
  0.12500000  0.31250000  0.50000000
  0.12500000  0.31250000  0.58333333
  0.12500000  0.31250000  0.66666667
  0.12500000  0.31250000  0.75000000
  0.12500000  0.31250000  0.83333333
  0.12500000  0.31250000  0.91666667
  0.12500000  0.37500000  0.00000000
  0.12500000  0.37500000  0.08333333
  0.12500000  0.37500000  0.16666667
  0.12500000  0.37500000  0.25000000
  0.12500000  0.37500000  0.33333333
  0.12500000  0.37500000  0.41666667
  0.12500000  0.37500000  0.50000000
  0.12500000  0.37500000  0.58333333
  0.12500000  0.37500000  0.66666667
  0.12500000  0.37500000  0.75000000
  0.12500000  0.37500000  0.83333333
  0.12500000  0.37500000  0.91666667
  0.12500000  0.43750000  0.00000000
  0.12500000  0.43750000  0.08333333
  0.12500000  0.43750000  0.16666667
  0.12500000  0.43750000  0.25000000
  0.12500000  0.43750000  0.33333333
  0.12500000  0.43750000  0.41666667
  0.12500000  0.43750000  0.50000000
  0.12500000  0.43750000  0.58333333
  0.12500000  0.43750000  0.66666667
  0.12500000  0.43750000  0.75000000
  0.12500000  0.43750000  0.83333333
  0.12500000  0.43750000  0.91666667
  0.12500000  0.50000000  0.00000000
  0.12500000  0.50000000  0.08333333
  0.12500000  0.50000000  0.16666667
  0.12500000  0.50000000  0.25000000
  0.12500000  0.50000000  0.33333333
  0.12500000  0.50000000  0.41666667
  0.12500000  0.50000000  0.50000000
  0.12500000  0.50000000  0.58333333
  0.12500000  0.50000000  0.66666667
  0.12500000  0.50000000  0.75000000
  0.12500000  0.50000000  0.83333333
  0.12500000  0.50000000  0.91666667
  0.12500000  0.56250000  0.00000000
  0.12500000  0.56250000  0.08333333
  0.12500000  0.56250000  0.16666667
  0.12500000  0.56250000  0.25000000
  0.12500000  0.56250000  0.33333333
  0.12500000  0.56250000  0.41666667
  0.12500000  0.56250000  0.50000000
  0.12500000  0.56250000  0.58333333
  0.12500000  0.56250000  0.66666667
  0.12500000  0.56250000  0.75000000
  0.12500000  0.56250000  0.83333333
  0.12500000  0.56250000  0.91666667
  0.12500000  0.62500000  0.00000000
  0.12500000  0.62500000  0.08333333
  0.12500000  0.62500000  0.16666667
  0.12500000  0.62500000  0.25000000
  0.12500000  0.62500000  0.33333333
  0.12500000  0.62500000  0.41666667
  0.12500000  0.62500000  0.50000000
  0.12500000  0.62500000  0.58333333
  0.12500000  0.62500000  0.66666667
  0.12500000  0.62500000  0.75000000
  0.12500000  0.62500000  0.83333333
  0.12500000  0.62500000  0.91666667
  0.12500000  0.68750000  0.00000000
  0.12500000  0.68750000  0.08333333
  0.12500000  0.68750000  0.16666667
  0.12500000  0.68750000  0.25000000
  0.12500000  0.68750000  0.33333333
  0.12500000  0.68750000  0.41666667
  0.12500000  0.68750000  0.50000000
  0.12500000  0.68750000  0.58333333
  0.12500000  0.68750000  0.66666667
  0.12500000  0.68750000  0.75000000
  0.12500000  0.68750000  0.83333333
  0.12500000  0.68750000  0.91666667
  0.12500000  0.75000000  0.00000000
  0.12500000  0.75000000  0.08333333
  0.12500000  0.75000000  0.16666667
  0.12500000  0.75000000  0.25000000
  0.12500000  0.75000000  0.33333333
  0.12500000  0.75000000  0.41666667
  0.12500000  0.75000000  0.50000000
  0.12500000  0.75000000  0.58333333
  0.12500000  0.75000000  0.66666667
  0.12500000  0.75000000  0.75000000
  0.12500000  0.75000000  0.83333333
  0.12500000  0.75000000  0.91666667
  0.12500000  0.81250000  0.00000000
  0.12500000  0.81250000  0.08333333
  0.12500000  0.81250000  0.16666667
  0.12500000  0.81250000  0.25000000
  0.12500000  0.81250000  0.33333333
  0.12500000  0.81250000  0.41666667
  0.12500000  0.81250000  0.50000000
  0.12500000  0.81250000  0.58333333
  0.12500000  0.81250000  0.66666667
  0.12500000  0.81250000  0.75000000
  0.12500000  0.81250000  0.83333333
  0.12500000  0.81250000  0.91666667
  0.12500000  0.87500000  0.00000000
  0.12500000  0.87500000  0.08333333
  0.12500000  0.87500000  0.16666667
  0.12500000  0.87500000  0.25000000
  0.12500000  0.87500000  0.33333333
  0.12500000  0.87500000  0.41666667
  0.12500000  0.87500000  0.50000000
  0.12500000  0.87500000  0.58333333
  0.12500000  0.87500000  0.66666667
  0.12500000  0.87500000  0.75000000
  0.12500000  0.87500000  0.83333333
  0.12500000  0.87500000  0.91666667
  0.12500000  0.93750000  0.00000000
  0.12500000  0.93750000  0.08333333
  0.12500000  0.93750000  0.16666667
  0.12500000  0.93750000  0.25000000
  0.12500000  0.93750000  0.33333333
  0.12500000  0.93750000  0.41666667
  0.12500000  0.93750000  0.50000000
  0.12500000  0.93750000  0.58333333
  0.12500000  0.93750000  0.66666667
  0.12500000  0.93750000  0.75000000
  0.12500000  0.93750000  0.83333333
  0.12500000  0.93750000  0.91666667
  0.18750000  0.00000000  0.00000000
  0.18750000  0.00000000  0.08333333
  0.18750000  0.00000000  0.16666667
  0.18750000  0.00000000  0.25000000
  0.18750000  0.00000000  0.33333333
  0.18750000  0.00000000  0.41666667
  0.18750000  0.00000000  0.50000000
  0.18750000  0.00000000  0.58333333
  0.18750000  0.00000000  0.66666667
  0.18750000  0.00000000  0.75000000
  0.18750000  0.00000000  0.83333333
  0.18750000  0.00000000  0.91666667
  0.18750000  0.06250000  0.00000000
  0.18750000  0.06250000  0.08333333
  0.18750000  0.06250000  0.16666667
  0.18750000  0.06250000  0.25000000
  0.18750000  0.06250000  0.33333333
  0.18750000  0.06250000  0.41666667
  0.18750000  0.06250000  0.50000000
  0.18750000  0.06250000  0.58333333
  0.18750000  0.06250000  0.66666667
  0.18750000  0.06250000  0.75000000
  0.18750000  0.06250000  0.83333333
  0.18750000  0.06250000  0.91666667
  0.18750000  0.12500000  0.00000000
  0.18750000  0.12500000  0.08333333
  0.18750000  0.12500000  0.16666667
  0.18750000  0.12500000  0.25000000
  0.18750000  0.12500000  0.33333333
  0.18750000  0.12500000  0.41666667
  0.18750000  0.12500000  0.50000000
  0.18750000  0.12500000  0.58333333
  0.18750000  0.12500000  0.66666667
  0.18750000  0.12500000  0.75000000
  0.18750000  0.12500000  0.83333333
  0.18750000  0.12500000  0.91666667
  0.18750000  0.18750000  0.00000000
  0.18750000  0.18750000  0.08333333
  0.18750000  0.18750000  0.16666667
  0.18750000  0.18750000  0.25000000
  0.18750000  0.18750000  0.33333333
  0.18750000  0.18750000  0.41666667
  0.18750000  0.18750000  0.50000000
  0.18750000  0.18750000  0.58333333
  0.18750000  0.18750000  0.66666667
  0.18750000  0.18750000  0.75000000
  0.18750000  0.18750000  0.83333333
  0.18750000  0.18750000  0.91666667
  0.18750000  0.25000000  0.00000000
  0.18750000  0.25000000  0.08333333
  0.18750000  0.25000000  0.16666667
  0.18750000  0.25000000  0.25000000
  0.18750000  0.25000000  0.33333333
  0.18750000  0.25000000  0.41666667
  0.18750000  0.25000000  0.50000000
  0.18750000  0.25000000  0.58333333
  0.18750000  0.25000000  0.66666667
  0.18750000  0.25000000  0.75000000
  0.18750000  0.25000000  0.83333333
  0.18750000  0.25000000  0.91666667
  0.18750000  0.31250000  0.00000000
  0.18750000  0.31250000  0.08333333
  0.18750000  0.31250000  0.16666667
  0.18750000  0.31250000  0.25000000
  0.18750000  0.31250000  0.33333333
  0.18750000  0.31250000  0.41666667
  0.18750000  0.31250000  0.50000000
  0.18750000  0.31250000  0.58333333
  0.18750000  0.31250000  0.66666667
  0.18750000  0.31250000  0.75000000
  0.18750000  0.31250000  0.83333333
  0.18750000  0.31250000  0.91666667
  0.18750000  0.37500000  0.00000000
  0.18750000  0.37500000  0.08333333
  0.18750000  0.37500000  0.16666667
  0.18750000  0.37500000  0.25000000
  0.18750000  0.37500000  0.33333333
  0.18750000  0.37500000  0.41666667
  0.18750000  0.37500000  0.50000000
  0.18750000  0.37500000  0.58333333
  0.18750000  0.37500000  0.66666667
  0.18750000  0.37500000  0.75000000
  0.18750000  0.37500000  0.83333333
  0.18750000  0.37500000  0.91666667
  0.18750000  0.43750000  0.00000000
  0.18750000  0.43750000  0.08333333
  0.18750000  0.43750000  0.16666667
  0.18750000  0.43750000  0.25000000
  0.18750000  0.43750000  0.33333333
  0.18750000  0.43750000  0.41666667
  0.18750000  0.43750000  0.50000000
  0.18750000  0.43750000  0.58333333
  0.18750000  0.43750000  0.66666667
  0.18750000  0.43750000  0.75000000
  0.18750000  0.43750000  0.83333333
  0.18750000  0.43750000  0.91666667
  0.18750000  0.50000000  0.00000000
  0.18750000  0.50000000  0.08333333
  0.18750000  0.50000000  0.16666667
  0.18750000  0.50000000  0.25000000
  0.18750000  0.50000000  0.33333333
  0.18750000  0.50000000  0.41666667
  0.18750000  0.50000000  0.50000000
  0.18750000  0.50000000  0.58333333
  0.18750000  0.50000000  0.66666667
  0.18750000  0.50000000  0.75000000
  0.18750000  0.50000000  0.83333333
  0.18750000  0.50000000  0.91666667
  0.18750000  0.56250000  0.00000000
  0.18750000  0.56250000  0.08333333
  0.18750000  0.56250000  0.16666667
  0.18750000  0.56250000  0.25000000
  0.18750000  0.56250000  0.33333333
  0.18750000  0.56250000  0.41666667
  0.18750000  0.56250000  0.50000000
  0.18750000  0.56250000  0.58333333
  0.18750000  0.56250000  0.66666667
  0.18750000  0.56250000  0.75000000
  0.18750000  0.56250000  0.83333333
  0.18750000  0.56250000  0.91666667
  0.18750000  0.62500000  0.00000000
  0.18750000  0.62500000  0.08333333
  0.18750000  0.62500000  0.16666667
  0.18750000  0.62500000  0.25000000
  0.18750000  0.62500000  0.33333333
  0.18750000  0.62500000  0.41666667
  0.18750000  0.62500000  0.50000000
  0.18750000  0.62500000  0.58333333
  0.18750000  0.62500000  0.66666667
  0.18750000  0.62500000  0.75000000
  0.18750000  0.62500000  0.83333333
  0.18750000  0.62500000  0.91666667
  0.18750000  0.68750000  0.00000000
  0.18750000  0.68750000  0.08333333
  0.18750000  0.68750000  0.16666667
  0.18750000  0.68750000  0.25000000
  0.18750000  0.68750000  0.33333333
  0.18750000  0.68750000  0.41666667
  0.18750000  0.68750000  0.50000000
  0.18750000  0.68750000  0.58333333
  0.18750000  0.68750000  0.66666667
  0.18750000  0.68750000  0.75000000
  0.18750000  0.68750000  0.83333333
  0.18750000  0.68750000  0.91666667
  0.18750000  0.75000000  0.00000000
  0.18750000  0.75000000  0.08333333
  0.18750000  0.75000000  0.16666667
  0.18750000  0.75000000  0.25000000
  0.18750000  0.75000000  0.33333333
  0.18750000  0.75000000  0.41666667
  0.18750000  0.75000000  0.50000000
  0.18750000  0.75000000  0.58333333
  0.18750000  0.75000000  0.66666667
  0.18750000  0.75000000  0.75000000
  0.18750000  0.75000000  0.83333333
  0.18750000  0.75000000  0.91666667
  0.18750000  0.81250000  0.00000000
  0.18750000  0.81250000  0.08333333
  0.18750000  0.81250000  0.16666667
  0.18750000  0.81250000  0.25000000
  0.18750000  0.81250000  0.33333333
  0.18750000  0.81250000  0.41666667
  0.18750000  0.81250000  0.50000000
  0.18750000  0.81250000  0.58333333
  0.18750000  0.81250000  0.66666667
  0.18750000  0.81250000  0.75000000
  0.18750000  0.81250000  0.83333333
  0.18750000  0.81250000  0.91666667
  0.18750000  0.87500000  0.00000000
  0.18750000  0.87500000  0.08333333
  0.18750000  0.87500000  0.16666667
  0.18750000  0.87500000  0.25000000
  0.18750000  0.87500000  0.33333333
  0.18750000  0.87500000  0.41666667
  0.18750000  0.87500000  0.50000000
  0.18750000  0.87500000  0.58333333
  0.18750000  0.87500000  0.66666667
  0.18750000  0.87500000  0.75000000